** written by FreeCAD inp file writer for CalculiX,Abaqus meshes
** highest dimension mesh elements only.

** Nodes
*Node, NSET=Nall
1, -5e-15, 5, 212
2, -5e-15, -5, 212
3, -2e-15, 5, 200
4, -2e-15, -5, 200
5, -5, -3, 180
6, -5, -3, 48
7, -5, 3, 180
8, -5, 3, 48
9, 5, -3, 180
10, 5, -3, 48
11, 5, 3, 180
12, 5, 3, 48
13, -7e-15, 5, 76
14, -7e-15, -5, 76
15, 10, 5, 209.3205080757
16, 17.32050807569, 5, 202
17, 20, 5, 192
18, 17.32050807569, 5, 182
19, 10, 5, 174.6794919243
20, -1.130139009627e-13, 5, 172
21, -10, 5, 174.6794919243
22, -17.32050807569, 5, 182
23, -20, 5, 192
24, -17.32050807569, 5, 202
25, -10, 5, 209.3205080757
26, 5.17638090205, 5, 211.3185165258
27, 14.14213562373, 5, 206.1421356237
28, 19.31851652578, 5, 197.1763809021
29, 19.31851652578, 5, 186.8236190979
30, 14.14213562373, 5, 177.8578643763
31, 5.17638090205, 5, 172.6814834742
32, -5.176380902051, 5, 172.6814834742
33, -14.14213562373, 5, 177.8578643763
34, -19.31851652578, 5, 186.8236190979
35, -19.31851652578, 5, 197.1763809021
36, -14.14213562373, 5, 206.1421356237
37, -5.17638090205, 5, 211.3185165258
38, -4.9e-15, 0, 212
39, 10, -5, 209.3205080757
40, 17.32050807569, -5, 202
41, 20, -5, 192
42, 17.32050807569, -5, 182
43, 10, -5, 174.6794919243
44, -1.130139009627e-13, -5, 172
45, -10, -5, 174.6794919243
46, -17.32050807569, -5, 182
47, -20, -5, 192
48, -17.32050807569, -5, 202
49, -10, -5, 209.3205080757
50, 5.17638090205, -5, 211.3185165258
51, 14.14213562373, -5, 206.1421356237
52, 19.31851652578, -5, 197.1763809021
53, 19.31851652578, -5, 186.8236190979
54, 14.14213562373, -5, 177.8578643763
55, 5.17638090205, -5, 172.6814834742
56, -5.176380902051, -5, 172.6814834742
57, -14.14213562373, -5, 177.8578643763
58, -19.31851652578, -5, 186.8236190979
59, -19.31851652578, -5, 197.1763809021
60, -14.14213562373, -5, 206.1421356237
61, -5.17638090205, -5, 211.3185165258
62, 4, 5, 198.9282032303
63, 6.928203230276, 5, 196
64, 8, 5, 192
65, 6.928203230275, 5, 188
66, 4, 5, 185.0717967697
67, -4.520556038509e-14, 5, 184
68, -4, 5, 185.0717967697
69, -6.928203230276, 5, 188
70, -8, 5, 192
71, -6.928203230275, 5, 196
72, -4, 5, 198.9282032303
73, 2.07055236082, 5, 199.7274066103
74, 5.656854249492, 5, 197.6568542495
75, 7.727406610313, 5, 194.0705523608
76, 7.727406610313, 5, 189.9294476392
77, 5.656854249492, 5, 186.3431457505
78, 2.07055236082, 5, 184.2725933897
79, -2.07055236082, 5, 184.2725933897
80, -5.656854249492, 5, 186.3431457505
81, -7.727406610313, 5, 189.9294476392
82, -7.727406610313, 5, 194.0705523608
83, -5.656854249492, 5, 197.6568542495
84, -2.07055236082, 5, 199.7274066103
85, 4, -5, 198.9282032303
86, 6.928203230276, -5, 196
87, 8, -5, 192
88, 6.928203230275, -5, 188
89, 4, -5, 185.0717967697
90, -4.520556038509e-14, -5, 184
91, -4, -5, 185.0717967697
92, -6.928203230276, -5, 188
93, -8, -5, 192
94, -6.928203230275, -5, 196
95, -4, -5, 198.9282032303
96, 2.07055236082, -5, 199.7274066103
97, 5.656854249492, -5, 197.6568542495
98, 7.727406610313, -5, 194.0705523608
99, 7.727406610313, -5, 189.9294476392
100, 5.656854249492, -5, 186.3431457505
101, 2.07055236082, -5, 184.2725933897
102, -2.07055236082, -5, 184.2725933897
103, -5.656854249492, -5, 186.3431457505
104, -7.727406610313, -5, 189.9294476392
105, -7.727406610313, -5, 194.0705523608
106, -5.656854249492, -5, 197.6568542495
107, -2.07055236082, -5, 199.7274066103
108, -1.96e-15, -1.666666666667, 200
109, -1.96e-15, 1.666666666667, 200
110, -1.96e-15, -3.333333333333, 200
111, -1.96e-15, 8.881784197001e-16, 200
112, -1.96e-15, 3.333333333333, 200
113, -5, -3, 114
114, -5, 0, 180
115, -5, 3, 114
116, -5, 0, 48
117, 5, -3, 114
118, 5, 0, 180
119, 5, 3, 114
120, 5, 0, 48
121, 0, -3, 48
122, 0, -3, 180
123, 0, 3, 48
124, 0, 3, 180
125, 14, 5, 72.24871130596
126, 24.24871130596, 5, 62
127, 28, 5, 48
128, 24.24871130596, 5, 34
129, 14, 5, 23.75128869404
130, -1.706539592236e-13, 5, 20
131, -14, 5, 23.75128869404
132, -24.24871130596, 5, 34
133, -28, 5, 48
134, -24.24871130596, 5, 62
135, -14, 5, 72.24871130596
136, 7.246933262871, 5, 75.04592313609
137, 19.79898987322, 5, 67.79898987322
138, 27.04592313609, 5, 55.24693326287
139, 27.04592313609, 5, 40.75306673713
140, 19.79898987322, 5, 28.20101012678
141, 7.24693326287, 5, 20.95407686391
142, -7.246933262871, 5, 20.95407686391
143, -19.79898987322, 5, 28.20101012678
144, -27.04592313609, 5, 40.75306673713
145, -27.04592313609, 5, 55.24693326287
146, -19.79898987322, 5, 67.79898987322
147, -7.24693326287, 5, 75.04592313609
148, -6.86e-15, 0, 76
149, 14, -5, 72.24871130596
150, 24.24871130596, -5, 62
151, 28, -5, 48
152, 24.24871130596, -5, 34
153, 14, -5, 23.75128869404
154, -1.706539592236e-13, -5, 20
155, -14, -5, 23.75128869404
156, -24.24871130596, -5, 34
157, -28, -5, 48
158, -24.24871130596, -5, 62
159, -14, -5, 72.24871130596
160, 7.246933262871, -5, 75.04592313609
161, 19.79898987322, -5, 67.79898987322
162, 27.04592313609, -5, 55.24693326287
163, 27.04592313609, -5, 40.75306673713
164, 19.79898987322, -5, 28.20101012678
165, 7.24693326287, -5, 20.95407686391
166, -7.246933262871, -5, 20.95407686391
167, -19.79898987322, -5, 28.20101012678
168, -27.04592313609, -5, 40.75306673713
169, -27.04592313609, -5, 55.24693326287
170, -19.79898987322, -5, 67.79898987322
171, -7.24693326287, -5, 75.04592313609
172, 5.17638090205, 0, 211.3185165258
173, -5.17638090205, 0, 211.3185165258
174, 10, 0, 209.3205080757
175, -10, 0, 209.3205080757
176, 14.14213562373, 0, 206.1421356237
177, 19.31851652578, 0, 197.1763809021
178, 20, 0, 192
179, 17.32050807569, 0, 202
180, 19.31851652578, 0, 186.8236190979
181, 17.32050807569, 0, 182
182, 14.14213562373, 0, 177.8578643763
183, 10, 0, 174.6794919243
184, 5.17638090205, 0, 172.6814834742
185, -5.176380902051, 0, 172.6814834742
186, -1.130139009627e-13, 0, 172
187, -14.14213562373, 0, 177.8578643763
188, -17.32050807569, 0, 182
189, -10, 0, 174.6794919243
190, -19.31851652578, 0, 186.8236190979
191, -19.31851652578, 0, 197.1763809021
192, -17.32050807569, 0, 202
193, -20, 0, 192
194, -14.14213562373, 0, 206.1421356237
195, 3.416237101988, 5, 204.7495704353
196, 9.333333333333, 5, 182.6666666667
197, -3.472079033996, 5, 204.5411655079
198, -9.286798389993, 5, 201.0901942513
199, -12.74957043532, 5, 188.583762898
200, -12.38084668855, 5, 195.2789928582
201, -9.124928405887, 5, 182.7225085987
202, 3.26367410655, 5, 179.4029925601
203, 12.59700743988, 5, 188.7363258935
204, -3.31020904989, 5, 179.6461316421
205, 9.277491401325, 5, 201.1249284059
206, 12.35386835786, 5, 195.3102090499
207, 6.708118550994, 5, 207.0350392555
208, 1.708118550994, 5, 208.3747852177
209, -1.736039516998, 5, 208.2705827539
210, -6.736039516998, 5, 206.9308367918
211, -0.02792096600395, 5, 204.6453679716
212, 1.708118550994, 5, 202.3747852177
213, 3.708118550994, 5, 201.8388868328
214, -3.736039516998, 5, 201.7346843691
215, -1.736039516998, 5, 202.2705827539
216, 13.29899973851, 5, 201.5624642029
217, 9.638745700663, 5, 205.2227182408
218, 6.346864251657, 5, 202.9372494206
219, 16.17693417893, 5, 193.6551045249
220, 14.83718821678, 5, 198.6551045249
221, 10.81567987959, 5, 198.2175687279
222, 14.95875775779, 5, 185.3681629467
223, 16.29850371994, 5, 190.3681629467
224, 12.47543789887, 5, 192.0232674717
225, 9.666666666667, 5, 178.6730792955
226, 13.32692070451, 5, 182.3333333333
227, 10.96517038661, 5, 185.7014962801
228, 1.631837053275, 5, 175.7014962801
229, 6.631837053275, 5, 177.0412422422
230, 6.298503719941, 5, 181.0348296134
231, -6.655104524945, 5, 177.1628117832
232, -1.655104524945, 5, 175.8230658211
233, -0.02326747167005, 5, 179.5245621011
234, -13.22271824079, 5, 182.3612542993
235, -9.562464202944, 5, 178.7010002615
236, -6.217568727888, 5, 181.1843201204
237, -16.37478521766, 5, 190.291881449
238, -15.03503925551, 5, 185.291881449
239, -10.9372494206, 5, 185.6531357483
240, -14.85067738212, 5, 198.6394964291
241, -16.19042334427, 5, 193.6394964291
242, -12.56520856193, 5, 191.9313778781
243, -9.643399194997, 5, 205.2053511635
244, -13.30365323284, 5, 201.5450971257
245, -10.83382253927, 5, 198.1845935548
246, -6.379438711995, 5, 202.8156798796
247, 6.638745700663, 5, 200.0265658181
248, 8.1028473158, 5, 198.5624642029
249, 9.641035794069, 5, 195.6551045249
250, 10.17693417893, 5, 193.6551045249
251, 10.29850371994, 5, 190.3681629467
252, 9.762605335079, 5, 188.3681629467
253, 8.130768281804, 5, 185.3333333333
254, 6.666666666667, 5, 183.8692317182
255, 3.631837053275, 5, 182.2373946649
256, 1.631837053275, 5, 181.7014962801
257, -1.655104524945, 5, 181.8230658211
258, -3.655104524945, 5, 182.3589642059
259, -6.562464202943, 5, 183.8971526842
260, -8.026565818081, 5, 185.3612542993
261, -9.838886832798, 5, 188.291881449
262, -10.37478521766, 5, 190.291881449
263, -10.19042334427, 5, 193.6394964291
264, -9.654524959411, 5, 195.6394964291
265, -8.107500810134, 5, 198.5450971257
266, -6.643399194997, 5, 200.0091987408
267, 3.416237101988, -5, 204.7495704353
268, 9.333333333333, -5, 182.6666666667
269, -3.472079033996, -5, 204.5411655079
270, -9.286798389993, -5, 201.0901942513
271, -12.74957043532, -5, 188.583762898
272, -12.38084668855, -5, 195.2789928582
273, -9.124928405887, -5, 182.7225085987
274, 3.26367410655, -5, 179.4029925601
275, 12.59700743988, -5, 188.7363258935
276, -3.31020904989, -5, 179.6461316421
277, 9.277491401325, -5, 201.1249284059
278, 12.35386835786, -5, 195.3102090499
279, 1.708118550994, -5, 208.3747852177
280, 6.708118550994, -5, 207.0350392555
281, -6.736039516998, -5, 206.9308367918
282, -1.736039516998, -5, 208.2705827539
283, -0.02792096600395, -5, 204.6453679716
284, 3.708118550994, -5, 201.8388868328
285, 1.708118550994, -5, 202.3747852177
286, -1.736039516998, -5, 202.2705827539
287, -3.736039516998, -5, 201.7346843691
288, 9.638745700663, -5, 205.2227182408
289, 13.29899973851, -5, 201.5624642029
290, 6.346864251657, -5, 202.9372494206
291, 14.83718821678, -5, 198.6551045249
292, 16.17693417893, -5, 193.6551045249
293, 10.81567987959, -5, 198.2175687279
294, 16.29850371994, -5, 190.3681629467
295, 14.95875775779, -5, 185.3681629467
296, 12.47543789887, -5, 192.0232674717
297, 13.32692070451, -5, 182.3333333333
298, 9.666666666667, -5, 178.6730792955
299, 10.96517038661, -5, 185.7014962801
300, 6.631837053275, -5, 177.0412422422
301, 1.631837053275, -5, 175.7014962801
302, 6.298503719941, -5, 181.0348296134
303, -1.655104524945, -5, 175.8230658211
304, -6.655104524945, -5, 177.1628117832
305, -0.02326747167005, -5, 179.5245621011
306, -9.562464202944, -5, 178.7010002615
307, -13.22271824079, -5, 182.3612542993
308, -6.217568727888, -5, 181.1843201204
309, -15.03503925551, -5, 185.291881449
310, -16.37478521766, -5, 190.291881449
311, -10.9372494206, -5, 185.6531357483
312, -16.19042334427, -5, 193.6394964291
313, -14.85067738212, -5, 198.6394964291
314, -12.56520856193, -5, 191.9313778781
315, -13.30365323284, -5, 201.5450971257
316, -9.643399194997, -5, 205.2053511635
317, -10.83382253927, -5, 198.1845935548
318, -6.379438711995, -5, 202.8156798796
319, 8.1028473158, -5, 198.5624642029
320, 6.638745700663, -5, 200.0265658181
321, 10.17693417893, -5, 193.6551045249
322, 9.641035794069, -5, 195.6551045249
323, 9.762605335079, -5, 188.3681629467
324, 10.29850371994, -5, 190.3681629467
325, 6.666666666667, -5, 183.8692317182
326, 8.130768281804, -5, 185.3333333333
327, 1.631837053275, -5, 181.7014962801
328, 3.631837053275, -5, 182.2373946649
329, -3.655104524945, -5, 182.3589642059
330, -1.655104524945, -5, 181.8230658211
331, -8.026565818081, -5, 185.3612542993
332, -6.562464202943, -5, 183.8971526842
333, -10.37478521766, -5, 190.291881449
334, -9.838886832798, -5, 188.291881449
335, -9.654524959411, -5, 195.6394964291
336, -10.19042334427, -5, 193.6394964291
337, -6.643399194997, -5, 200.0091987408
338, -8.107500810134, -5, 198.5450971257
339, -7.751173309934, 0.0004090689846006, 193.9797253141
340, -5.900629000126, 0.008584387974766, 197.4020900958
341, 5.900629000126, 0.008584387974766, 197.4020900958
342, 7.751173309934, 0.0004090689846006, 193.9797253141
343, -7.727406610313, 0, 189.9294476392
344, -5.656854249492, 0, 186.3431457505
345, -2.07055236082, 3.333333333333, 199.7274066103
346, -3.330387815149, 0.3820363689807, 199.2738240975
347, 3.330387815149, 0.3820363689807, 199.2738240975
348, 2.07055236082, 3.333333333333, 199.7274066103
349, 1.816621978181, -2.083765626184, 199.7910130656
350, -1.816621978181, -2.083765626184, 199.7910130656
351, -2.07055236082, 0, 184.2725933897
352, 2.07055236082, 0, 184.2725933897
353, 5.656854249492, -8.881784197001e-16, 186.3431457505
354, 7.727406610313, 0, 189.9294476392
355, 1.04420953776, 4.166666666667, 199.931558891
356, 3.061467458921, 4.166666666667, 199.3910362601
357, -1.04420953776, 4.166666666667, 199.931558891
358, -3.061467458921, 4.166666666667, 199.3910362601
359, -1.04420953776, 2.5, 199.931558891
360, 1.04420953776, 2.5, 199.931558891
361, 0.914301775996, -3.541882813092, 199.9475815354
362, 2.940133162333, -3.541882813092, 199.440135549
363, -0.914301775996, -3.541882813092, 199.9475815354
364, -2.940133162333, -3.541882813092, 199.440135549
365, 0.914301775996, -1.875216146425, 199.9475815354
366, -0.914301775996, -1.875216146425, 199.9475815354
367, 5.008779190018, 2.504292193987, 198.237958883
368, 6.452611739297, 2.504292193987, 196.7290381413
369, 4.709433607583, 0.1953103784777, 198.4669339795
370, 3.669265570394, 2.69101818449, 199.1089021778
371, 2.709976562646, 1.857684851157, 199.5270197974
372, 7.408873150076, 2.500204534492, 195.018045501
373, 7.937549574002, 2.500204534492, 192.9976506203
374, 7.037120984672, 0.004496728479683, 195.8051186903
375, 7.93155889099, 2.5, 190.9557904622
376, 7.39103626009, 2.5, 188.9385325411
377, 7.999862273683, 0.0002045344923003, 191.9530574595
378, 6.34682672233, 2.5, 187.1299085679
379, 4.87009143207, 2.5, 185.6531732777
380, 6.928203230275, 0, 188
381, 3.061467458921, 2.5, 184.6089637399
382, 1.04420953776, 2.5, 184.068441109
383, 4, 0, 185.0717967697
384, -3.061467458921, 2.5, 184.6089637399
385, -1.04420953776, 2.5, 184.068441109
386, -4.165284670629e-14, 0, 184
387, -4.87009143207, 2.5, 185.6531732777
388, -6.34682672233, 2.5, 187.1299085679
389, -4, 0, 185.0717967697
390, -7.39103626009, 2.5, 188.9385325411
391, -7.93155889099, 2.5, 190.9557904622
392, -6.928203230276, 0, 188
393, -7.937549574002, 2.500204534492, 192.9976506203
394, -7.408873150076, 2.500204534492, 195.018045501
395, -7.999862273683, 0.0002045344923003, 191.9530574595
396, -6.452611739297, 2.504292193987, 196.7290381413
397, -5.008779190018, 2.504292193987, 198.237958883
398, -7.037120984672, 0.004496728479683, 195.8051186903
399, -4.709433607583, 0.1953103784777, 198.4669339795
400, -3.669265570394, 2.69101818449, 199.1089021778
401, -2.709976562646, 1.857684851157, 199.5270197974
402, 6.452611739297, -2.495707806013, 196.7290381413
403, 5.008779190018, -2.495707806013, 198.237958883
404, 3.669265570394, -2.30898181551, 199.1089021778
405, 2.586464490448, -0.8508646286017, 199.570350153
406, 7.937549574002, -2.499795465508, 192.9976506203
407, 7.408873150076, -2.499795465508, 195.018045501
408, 7.39103626009, -2.5, 188.9385325411
409, 7.93155889099, -2.5, 190.9557904622
410, 4.87009143207, -2.5, 185.6531732777
411, 6.34682672233, -2.5, 187.1299085679
412, 1.04420953776, -2.5, 184.068441109
413, 3.061467458921, -2.5, 184.6089637399
414, -1.04420953776, -2.5, 184.068441109
415, -3.061467458921, -2.5, 184.6089637399
416, -6.34682672233, -2.5, 187.1299085679
417, -4.87009143207, -2.5, 185.6531732777
418, -7.93155889099, -2.5, 190.9557904622
419, -7.39103626009, -2.5, 188.9385325411
420, -7.408873150076, -2.499795465508, 195.018045501
421, -7.937549574002, -2.499795465508, 192.9976506203
422, -5.008779190018, -2.495707806013, 198.237958883
423, -6.452611739297, -2.495707806013, 196.7290381413
424, -3.669265570394, -2.30898181551, 199.1089021778
425, -2.586464490448, -0.8508646286017, 199.570350153
426, 0.914301775996, -0.2085494797587, 199.9475815354
427, -0.914301775996, -0.2085494797587, 199.9475815354
428, -1.704319104564, 1.024351517824, 199.8163480213
429, 1.704319104564, 1.024351517824, 199.8163480213
430, -5, 0, 114
431, 5, 0, 114
432, 0, -3, 114
433, 0, 3, 114
434, 0, 0, 48
435, -2.5, 1.5, 48
436, -2.5, -1.5, 48
437, 2.5, -1.5, 48
438, 2.5, 1.5, 48
439, 0, 0, 180
440, -2.5, -1.5, 180
441, -2.5, 1.5, 180
442, 2.5, -1.5, 180
443, 2.5, 1.5, 180
444, 7.246933262871, 0, 75.04592313609
445, -7.246933262871, 0, 75.04592313609
446, 14, 0, 72.24871130596
447, -14, 0, 72.24871130596
448, 19.79898987322, 0, 67.79898987322
449, 24.24871130596, 0, 62
450, 27.04592313609, 0, 55.24693326287
451, 28, 0, 48
452, 27.04592313609, 0, 40.75306673713
453, 19.79898987322, 0, 28.20101012678
454, 24.24871130596, 0, 34
455, 7.24693326287, 0, 20.95407686391
456, -1.706539592236e-13, 0, 20
457, 14, 0, 23.75128869404
458, -7.246933262871, 0, 20.95407686391
459, -14, 0, 23.75128869404
460, -19.79898987322, 0, 28.20101012678
461, -24.24871130596, 0, 34
462, -27.04592313609, 0, 40.75306673713
463, -27.04592313609, 0, 55.24693326287
464, -24.24871130596, 0, 62
465, -28, 0, 48
466, -19.79898987322, 0, 67.79898987322
467, -7.174332940777e-15, 5, 48
468, -3.751288694036, 5, 62
469, -14, 5, 51.75128869404
470, 3.751288694036, 5, 34
471, 14, 5, 44.24871130596
472, 10.24871130596, 5, 58.24871130596
473, -10.24871130596, 5, 37.75128869404
474, 5.124355652982, 5, 67.12435565298
475, -14, 5, 62
476, 19.12435565298, 5, 53.12435565298
477, 14, 5, 34
478, 9.562177826491, 5, 69.68653347947
479, 2.562177826491, 5, 71.56217782649
480, -1.875644347018, 5, 69
481, -8.875644347018, 5, 67.12435565298
482, 0.6865334794732, 5, 64.56217782649
483, 17.24871130596, 5, 60.12435565298
484, 12.12435565298, 5, 65.24871130596
485, 7.686533479473, 5, 62.68653347947
486, 23.56217782649, 5, 50.56217782649
487, 21.68653347947, 5, 57.56217782649
488, 14.68653347947, 5, 55.68653347947
489, 19.12435565298, 5, 39.12435565298
490, 21, 5, 46.12435565298
491, 16.56217782649, 5, 48.68653347947
492, 14, 5, 28.87564434702
493, 19.12435565298, 5, 34
494, 14, 5, 39.12435565298
495, 1.875644347018, 5, 27
496, 8.875644347018, 5, 28.87564434702
497, 8.875644347018, 5, 34
498, -12.12435565298, 5, 30.75128869404
499, -5.124355652982, 5, 28.87564434702
500, -3.248711305964, 5, 35.87564434702
501, -17.24871130596, 5, 35.87564434702
502, -21, 5, 49.87564434702
503, -19.12435565298, 5, 42.87564434702
504, -12.12435565298, 5, 44.75128869404
505, -19.12435565298, 5, 56.87564434702
506, -14, 5, 67.12435565298
507, -19.12435565298, 5, 62
508, -14, 5, 56.87564434702
509, -8.875644347018, 5, 62
510, -7, 5, 49.87564434702
511, -8.875644347018, 5, 56.87564434702
512, -1.875644347018, 5, 55
513, 3.248711305964, 5, 60.12435565298
514, 5.124355652982, 5, 53.12435565298
515, -5.124355652982, 5, 42.87564434702
516, 7, 5, 46.12435565298
517, 8.875644347018, 5, 39.12435565298
518, 1.875644347018, 5, 41
519, 12.12435565298, 5, 51.24871130596
520, -7.174332940777e-15, -5, 48
521, -3.751288694036, -5, 62
522, -14, -5, 51.75128869404
523, 3.751288694036, -5, 34
524, 14, -5, 44.24871130596
525, 10.24871130596, -5, 58.24871130596
526, -10.24871130596, -5, 37.75128869404
527, 5.124355652982, -5, 67.12435565298
528, -14, -5, 62
529, 19.12435565298, -5, 53.12435565298
530, 14, -5, 34
531, 2.562177826491, -5, 71.56217782649
532, 9.562177826491, -5, 69.68653347947
533, -8.875644347018, -5, 67.12435565298
534, -1.875644347018, -5, 69
535, 0.6865334794732, -5, 64.56217782649
536, 12.12435565298, -5, 65.24871130596
537, 17.24871130596, -5, 60.12435565298
538, 7.686533479473, -5, 62.68653347947
539, 21.68653347947, -5, 57.56217782649
540, 23.56217782649, -5, 50.56217782649
541, 14.68653347947, -5, 55.68653347947
542, 21, -5, 46.12435565298
543, 19.12435565298, -5, 39.12435565298
544, 16.56217782649, -5, 48.68653347947
545, 19.12435565298, -5, 34
546, 14, -5, 28.87564434702
547, 14, -5, 39.12435565298
548, 8.875644347018, -5, 28.87564434702
549, 1.875644347018, -5, 27
550, 8.875644347018, -5, 34
551, -5.124355652982, -5, 28.87564434702
552, -12.12435565298, -5, 30.75128869404
553, -3.248711305964, -5, 35.87564434702
554, -17.24871130596, -5, 35.87564434702
555, -19.12435565298, -5, 42.87564434702
556, -21, -5, 49.87564434702
557, -12.12435565298, -5, 44.75128869404
558, -19.12435565298, -5, 56.87564434702
559, -19.12435565298, -5, 62
560, -14, -5, 67.12435565298
561, -14, -5, 56.87564434702
562, -8.875644347018, -5, 62
563, -1.875644347018, -5, 55
564, -8.875644347018, -5, 56.87564434702
565, -7, -5, 49.87564434702
566, 5.124355652982, -5, 53.12435565298
567, 3.248711305964, -5, 60.12435565298
568, -5.124355652982, -5, 42.87564434702
569, 1.875644347018, -5, 41
570, 8.875644347018, -5, 39.12435565298
571, 7, -5, 46.12435565298
572, 12.12435565298, -5, 51.24871130596
573, 15.28761091622, -7.216767801455e-17, 195.8350285147
574, 9.274950641241, 0, 202.7846252033
575, 1.879065298762, 1.7763568394e-15, 204.5912207106
576, 16.30405949595, -2.5, 198.9175142573
577, 17.64380545811, -2.5, 193.9175142573
578, 16.30405949595, 2.5, 198.9175142573
579, 17.64380545811, 2.5, 193.9175142573
580, 5.701942847077, 2.5, 183.4696300282
581, 7.495093791413, 2.5, 184.5049062086
582, 5.701942847077, -2.5, 183.4696300282
583, 7.495093791413, -2.5, 184.5049062086
584, 9.333333333333, 0, 182.6666666667
585, 0.5965608728647, 2.5, 181.8377929749
586, 2.667113233685, 2.5, 181.8377929749
587, 0.5965608728647, -2.5, 181.8377929749
588, 2.667113233685, -2.5, 181.8377929749
589, 3.26367410655, 0, 179.4029925601
590, -7.39089132769, -2.5, 184.5328271746
591, -9.124928405887, 0, 182.7225085987
592, -7.39089132769, 2.5, 184.5328271746
593, -5.597740383354, 2.5, 183.4975509942
594, -5.597740383354, -2.5, 183.4975509942
595, 10.1622070251, 2.5, 189.3328867663
596, 10.17409037491, 2.500204534492, 191.3580256038
597, 10.17409037491, -2.499795465508, 191.3580256038
598, 12.59700743988, 0, 188.7363258935
599, 10.1622070251, -2.5, 189.3328867663
600, -9.140737844336, 2.504292193987, 196.340541477
601, -10.06600999924, 2.500204534492, 194.6293590862
602, -10.06600999924, -2.499795465508, 194.6293590862
603, -12.38084668855, 0, 195.2789928582
604, -9.140737844336, -2.495707806013, 196.340541477
605, -6.308593102571, 2.69101818449, 200.1820091744
606, -3.401233424572, 2.69101818449, 201.9074948027
607, -3.472079033996, 0, 204.5411655079
608, -3.401233424572, -2.30898181551, 201.9074948027
609, -6.379438711995, 0, 202.8156798796
610, 6.298503719941, 0, 181.0348296134
611, -6.308593102571, -2.30898181551, 200.1820091744
612, -9.286798389993, 0, 201.0901942513
613, 12.47543789887, 0, 192.0232674717
614, 10.0525208339, -2.499795465508, 194.644967182
615, -6.217568727888, 0, 181.1843201204
616, -2.690380705355, 2.5, 181.9593625159
617, -2.690380705355, -2.5, 181.9593625159
618, -0.02326747167005, 0, 179.5245621011
619, -7.59371369506, 2.504292193987, 199.2461421735
620, -10.83382253927, 0, 198.1845935548
621, -7.59371369506, -2.495707806013, 199.2461421735
622, 10.0525208339, 2.500204534492, 194.644967182
623, 12.35386835786, 0, 195.3102090499
624, -3.31020904989, 0, 179.6461316421
625, 0.9395326493808, 0.8333333333333, 202.2956103553
626, 0.9395326493808, -0.8333333333333, 202.2956103553
627, 0.03122166029049, -1.041882813092, 202.1911168881
628, -2.771315697408, 4.166666666667, 202.1342860591
629, -1.736039516998, 3.333333333333, 202.2705827539
630, -0.7256612581935, 0.1910181844904, 201.932522404
631, -12.74957043532, 0, 188.583762898
632, -16.37478521766, 0, 190.291881449
633, -12.56520856193, 0, 191.9313778781
634, -1.736039516998, 0, 208.2705827539
635, -0.7965068676172, 2.5, 204.5661931092
636, -0.7965068676172, -2.5, 204.5661931092
637, 0.9395326493808, 2.5, 208.2956103553
638, 9.126930844688, 2.5, 187.539735822
639, 9.126930844688, -2.5, 187.539735822
640, -8.4261675081, -2.5, 186.3259781189
641, -8.4261675081, 2.5, 186.3259781189
642, -9.643399194997, 0, 205.2053511635
643, -14.85067738212, 0, 198.6394964291
644, -2.644350506088, -3.541882813092, 202.1660892867
645, -10.05412664943, 2.5, 192.6042202487
646, -10.05412664943, -2.5, 192.6042202487
647, 2.743394731404, 4.166666666667, 202.2384885228
648, 3.373312458568, 2.69101818449, 202.0116972664
649, 9.127248678994, 2.504292193987, 196.3561495728
650, 7.587789820683, 0.004292193987383, 200.0933576496
651, 10.81440949955, 2.5, 199.0474171266
652, 8.513061975587, 0.0002045344923003, 198.3821752587
653, 9.127248678994, -2.495707806013, 196.3561495728
654, 10.81440949955, -2.5, 199.0474171266
655, -15.03503925551, 0, 185.291881449
656, -6.736039516998, 0, 206.9308367918
657, -13.30365323284, 0, 201.5450971257
658, -16.19042334427, 0, 193.6394964291
659, 5.545786309711, -1.041882813092, 201.2878191345
660, 6.302669228195, 0.1910181844904, 201.0292246504
661, 6.63747532062, -2.5, 200.8564142168
662, 10.96517038661, 0, 185.7014962801
663, 13.32692070451, 0, 182.3333333333
664, 9.666666666667, 0, 178.6730792955
665, -10.9372494206, 0, 185.6531357483
666, -10.23848852282, -2.5, 189.2566052686
667, -10.23848852282, 2.5, 189.2566052686
668, 6.631837053275, 0, 177.0412422422
669, -13.22271824079, 0, 182.3612542993
670, 14.95875775779, 0, 185.3681629467
671, 1.631837053275, 0, 175.7014962801
672, -9.562464202944, 0, 178.7010002615
673, -6.655104524945, 0, 177.1628117832
674, -1.655104524945, 0, 175.8230658211
675, 13.82073963704, -2.5, 195.5726187823
676, 13.82073963704, 2.5, 195.5726187823
677, 12.28128077873, -3.608383900728e-17, 199.309826859
678, 7.589060200726, -2.495707806013, 199.2635092508
679, 0.9395326493808, -2.5, 208.2956103553
680, 7.589060200726, 2.504292193987, 199.2635092508
681, 16.29850371994, 0, 190.3681629467
682, 2.616429540084, -3.541882813092, 202.2702917505
683, 6.345593871614, -2.5, 203.7670978193
684, 9.276221021283, -2.5, 201.9547768046
685, 9.276221021283, 2.5, 201.9547768046
686, 6.303939608237, 2.69101818449, 200.1993762517
687, 13.29772935846, 2.5, 202.3923126017
688, 9.63747532062, -2.5, 206.0525666395
689, 13.29772935846, -2.5, 202.3923126017
690, 1.974808829791, 1.666666666667, 202.1593136604
691, 2.647651200375, 2.5, 204.6703955729
692, 2.604726556955, 0.1910181844904, 201.932522404
693, 5.939532649381, 2.5, 206.9558643931
694, 0.9395326493808, 2.5, 202.2956103553
695, 1.847843638471, -1.041882813092, 202.1911168881
696, 9.63747532062, 2.5, 206.0525666395
697, 5.939532649381, -2.5, 206.9558643931
698, 6.345593871614, 2.5, 203.7670978193
699, 5.577007970001, 8.881784197001e-16, 203.687922957
700, 2.647651200375, -2.5, 204.6703955729
701, 0.9395326493808, -2.5, 202.2956103553
702, 13.94230917805, -2.5, 192.2856772041
703, 13.94230917805, 2.5, 192.2856772041
704, -2.5, -1.5, 114
705, -2.5, 1.5, 114
706, 0, 0, 114
707, 2.5, 1.5, 114
708, 2.5, -1.5, 114
709, 8.975377643885, -0.8976663497507, 65.49317875684
710, 5.93537837674, -0.01296017741486, 25.92144332982
711, -6.011920087684, -0.5, 28.36320878172
712, -3.005960043842, -2.75, 24.18160439086
713, -1.130315696824, -2.75, 31.18160439086
714, -8.130315696824, -2.75, 33.05724873788
715, -10.00596004384, -2.75, 26.05724873788
716, 8.875644347018, 0, 28.87564434702
717, 3.751288694036, 0, 34
718, 4.843333535388, 2.493519911293, 29.96072166491
719, 4.843333535388, -2.506480088707, 29.96072166491
720, 9.96768918837, -2.506480088707, 24.83636601193
721, 9.96768918837, 2.493519911293, 24.83636601193
722, 5.124355652982, 0, 67.12435565298
723, 9.562177826491, 0, 69.68653347947
724, 11.48768882194, -2.948833174875, 68.8709450314
725, 7.049866648434, 2.051166825125, 66.30876720491
726, 7.049866648434, -2.948833174875, 66.30876720491
727, 1.875644347018, 0, 27
728, 2.96768918837, 2.493519911293, 22.96072166491
729, -12.12435565298, 0, 30.75128869404
730, -8.130315696824, 2.25, 33.05724873788
731, -10.00596004384, 2.25, 26.05724873788
732, 2.96768918837, -2.506480088707, 22.96072166491
733, 14, 0, 28.87564434702
734, 8.875644347018, 0, 34
735, 14, 0, 34
736, 19.12435565298, 0, 53.12435565298
737, 14.68653347947, 0, 55.68653347947
738, 16.56217782649, 0, 48.68653347947
739, 14, 0, 39.12435565298
740, -8.875644347018, 0, 62
741, -14, 0, 67.12435565298
742, -14, 0, 62
743, 23.56217782649, 0, 50.56217782649
744, -10.24871130596, 0, 37.75128869404
745, 7, 0, 46.12435565298
746, 1.875644347018, 0, 41
747, 5.124355652982, 0, 53.12435565298
748, 8.875644347018, 0, 39.12435565298
749, 12.12435565298, 0, 51.24871130596
750, 10.24871130596, 0, 58.24871130596
751, -1.875644347018, 0, 55
752, 14, 0, 44.24871130596
753, 3.248711305964, 0, 60.12435565298
754, -3.751288694036, 0, 62
755, 2.562177826491, 0, 71.56217782649
756, 21.68653347947, 0, 57.56217782649
757, 19.12435565298, 0, 34
758, -19.12435565298, 0, 62
759, 0.6865334794732, 0, 64.56217782649
760, -1.875644347018, 0, 69
761, 11.48768882194, 2.051166825125, 68.8709450314
762, -8.875644347018, 0, 67.12435565298
763, 21, 0, 46.12435565298
764, -3.248711305964, 0, 35.87564434702
765, 19.12435565298, 0, 39.12435565298
766, 9.612044474925, -2.948833174875, 61.8709450314
767, -14, 0, 56.87564434702
768, -21, 0, 49.87564434702
769, 17.24871130596, 0, 60.12435565298
770, -8.875644347018, 0, 56.87564434702
771, -7, 0, 49.87564434702
772, -5.124355652982, 0, 42.87564434702
773, -19.12435565298, 0, 42.87564434702
774, -14, 0, 51.75128869404
775, -19.12435565298, 0, 56.87564434702
776, -12.12435565298, 0, 44.75128869404
777, -17.24871130596, 0, 35.87564434702
778, 9.612044474925, 2.051166825125, 61.8709450314
779, 16.61204447492, -2.948833174875, 63.74658937842
780, 2.612044474925, 2.051166825125, 63.74658937842
781, 2.612044474925, -2.948833174875, 63.74658937842
782, -3.005960043842, 2.25, 24.18160439086


** Volume elements
*Element, TYPE=C3D10, ELSET=Evolumes
388, 41, 40, 16, 573, 52, 179, 177, 577, 576, 578
389, 41, 16, 17, 573, 177, 28, 178, 577, 578, 579
390, 353, 352, 196, 268, 383, 580, 581, 583, 582, 584
391, 352, 351, 202, 274, 386, 585, 586, 588, 587, 589
392, 201, 344, 273, 351, 592, 590, 591, 593, 389, 594
393, 203, 342, 354, 275, 596, 377, 595, 598, 597, 599
394, 200, 339, 340, 272, 601, 398, 600, 603, 602, 604
395, 346, 197, 198, 269, 606, 246, 605, 608, 607, 609
396, 274, 196, 352, 268, 610, 580, 588, 302, 584, 582
397, 198, 270, 346, 269, 612, 611, 605, 609, 318, 608
398, 196, 352, 202, 274, 580, 586, 230, 610, 588, 589
399, 342, 203, 278, 275, 596, 613, 614, 597, 598, 296
400, 204, 201, 273, 351, 236, 591, 615, 616, 593, 594
401, 276, 202, 351, 274, 618, 585, 617, 305, 589, 587
402, 272, 340, 198, 270, 604, 619, 620, 317, 621, 612
403, 278, 342, 206, 203, 614, 622, 623, 613, 596, 224
404, 276, 204, 273, 351, 624, 615, 308, 617, 616, 594
405, 351, 276, 204, 202, 617, 624, 616, 585, 618, 233
406, 200, 340, 198, 272, 600, 619, 245, 603, 604, 620
407, 198, 340, 346, 270, 619, 399, 605, 612, 621, 611
408, 108, 109, 350, 575, 111, 427, 366, 626, 625, 627
409, 345, 346, 109, 197, 401, 428, 359, 628, 606, 629
410, 109, 346, 350, 575, 428, 425, 427, 625, 630, 627
411, 199, 47, 271, 272, 632, 310, 631, 633, 312, 314
412, 269, 197, 1, 575, 607, 209, 634, 636, 635, 637
413, 353, 65, 354, 203, 378, 376, 380, 638, 252, 595
414, 354, 88, 353, 275, 408, 411, 380, 599, 323, 639
415, 344, 273, 92, 343, 590, 331, 416, 392, 640, 419
416, 343, 69, 344, 201, 390, 388, 392, 641, 260, 592
417, 269, 198, 270, 49, 609, 612, 318, 281, 642, 316
418, 198, 24, 200, 272, 244, 240, 245, 620, 643, 603
419, 269, 350, 346, 575, 644, 425, 608, 636, 627, 630
420, 346, 95, 350, 269, 424, 364, 425, 608, 287, 644
421, 342, 87, 354, 275, 406, 409, 377, 597, 324, 599
422, 64, 342, 354, 203, 373, 377, 375, 251, 596, 595
423, 343, 339, 70, 200, 395, 393, 391, 645, 601, 263
424, 272, 343, 339, 93, 646, 395, 602, 336, 418, 421
425, 195, 348, 62, 347, 647, 356, 213, 648, 371, 370
426, 206, 341, 342, 574, 649, 374, 622, 651, 650, 652
427, 342, 341, 278, 574, 374, 653, 614, 652, 650, 654
428, 72, 346, 345, 197, 400, 401, 358, 214, 606, 628
429, 278, 206, 342, 574, 623, 622, 614, 654, 651, 652
430, 272, 339, 340, 94, 602, 398, 604, 335, 420, 423
431, 199, 46, 271, 47, 655, 309, 631, 632, 58, 310
432, 340, 71, 339, 200, 396, 394, 398, 600, 264, 601
433, 341, 278, 86, 342, 653, 322, 402, 374, 614, 407
434, 206, 341, 63, 342, 649, 368, 249, 622, 374, 372
435, 25, 1, 269, 197, 37, 634, 656, 210, 209, 607
436, 48, 270, 198, 49, 315, 612, 657, 60, 316, 642
437, 24, 23, 200, 272, 35, 241, 240, 643, 658, 603
438, 347, 349, 85, 574, 405, 362, 404, 660, 659, 661
439, 196, 275, 268, 42, 662, 299, 584, 663, 295, 297
440, 43, 196, 274, 268, 664, 610, 300, 298, 584, 302
441, 46, 273, 199, 271, 307, 665, 655, 309, 311, 631
442, 197, 346, 109, 575, 606, 428, 629, 635, 630, 625
443, 65, 353, 196, 203, 378, 581, 253, 252, 638, 227
444, 268, 353, 88, 275, 583, 411, 326, 299, 639, 323
445, 271, 92, 273, 343, 334, 331, 311, 666, 419, 640
446, 69, 343, 199, 201, 390, 667, 261, 260, 641, 239
447, 196, 202, 43, 274, 230, 668, 664, 610, 589, 300
448, 46, 199, 273, 201, 655, 665, 307, 669, 239, 591
449, 275, 196, 203, 42, 662, 227, 598, 295, 663, 670
450, 198, 197, 25, 269, 246, 210, 243, 609, 607, 656
451, 199, 23, 272, 200, 237, 658, 633, 242, 241, 603
452, 202, 276, 44, 274, 618, 303, 671, 589, 305, 301
453, 273, 204, 21, 201, 615, 231, 672, 591, 236, 235
454, 48, 272, 198, 270, 313, 620, 657, 315, 317, 612
455, 273, 276, 21, 204, 308, 673, 672, 615, 624, 231
456, 204, 276, 44, 202, 624, 303, 674, 233, 618, 671
457, 343, 70, 199, 200, 391, 262, 667, 645, 263, 242
458, 343, 272, 271, 93, 646, 314, 666, 418, 336, 333
459, 95, 346, 340, 270, 424, 399, 422, 337, 611, 621
460, 346, 197, 269, 575, 606, 607, 608, 630, 635, 636
461, 206, 278, 573, 574, 623, 675, 676, 651, 654, 677
462, 87, 342, 278, 275, 406, 614, 321, 324, 597, 296
463, 342, 64, 206, 203, 373, 250, 622, 596, 251, 224
464, 18, 203, 196, 42, 222, 227, 226, 181, 670, 663
465, 199, 46, 22, 201, 655, 188, 238, 239, 669, 234
466, 3, 345, 109, 197, 357, 359, 112, 215, 628, 629
467, 199, 272, 23, 47, 633, 658, 237, 632, 312, 193
468, 272, 94, 340, 270, 335, 423, 604, 317, 338, 621
469, 71, 340, 198, 200, 396, 619, 265, 264, 600, 245
470, 198, 269, 25, 49, 609, 656, 243, 642, 281, 175
471, 277, 278, 86, 341, 293, 322, 319, 678, 653, 402
472, 2, 269, 1, 575, 282, 634, 38, 679, 636, 637
473, 206, 205, 63, 341, 221, 248, 249, 649, 680, 368
474, 346, 270, 95, 269, 611, 337, 424, 608, 318, 287
475, 21, 276, 273, 45, 673, 308, 672, 189, 304, 306
476, 198, 48, 24, 272, 657, 192, 244, 620, 313, 643
477, 42, 196, 43, 268, 663, 664, 54, 297, 584, 298
478, 43, 202, 44, 274, 668, 671, 55, 300, 589, 301
479, 17, 275, 203, 42, 681, 598, 223, 180, 295, 670
480, 46, 273, 21, 201, 307, 672, 187, 669, 591, 235
481, 44, 21, 276, 204, 185, 673, 303, 674, 231, 624
482, 85, 349, 267, 574, 362, 682, 284, 661, 659, 683
483, 277, 278, 341, 574, 293, 653, 678, 684, 654, 650
484, 206, 205, 341, 574, 221, 680, 649, 651, 685, 650
485, 341, 347, 85, 574, 369, 404, 403, 650, 660, 661
486, 195, 62, 205, 347, 213, 247, 218, 648, 370, 686
487, 72, 340, 346, 198, 397, 399, 400, 266, 619, 605
488, 39, 16, 40, 574, 176, 179, 51, 688, 687, 689
489, 205, 347, 62, 341, 686, 370, 247, 680, 369, 367
490, 72, 198, 346, 197, 266, 605, 400, 214, 246, 606
491, 21, 44, 276, 45, 185, 303, 673, 189, 56, 304
492, 22, 23, 46, 199, 34, 190, 188, 238, 237, 655
493, 46, 199, 23, 47, 655, 237, 190, 58, 632, 193
494, 196, 19, 18, 42, 225, 30, 226, 663, 182, 181
495, 272, 23, 48, 24, 658, 191, 313, 643, 35, 192
496, 272, 48, 23, 47, 313, 191, 658, 312, 59, 193
497, 195, 348, 347, 575, 647, 371, 648, 691, 690, 692
498, 21, 273, 46, 45, 672, 307, 187, 189, 306, 57
499, 2, 25, 269, 49, 173, 656, 282, 61, 175, 281
500, 21, 22, 46, 201, 33, 188, 187, 235, 234, 669
501, 203, 18, 17, 42, 222, 29, 223, 670, 181, 180
502, 25, 269, 1, 2, 656, 634, 37, 173, 282, 38
503, 48, 198, 25, 49, 657, 243, 194, 60, 642, 175
504, 198, 25, 24, 48, 243, 36, 244, 657, 194, 192
505, 15, 2, 1, 575, 172, 38, 26, 693, 679, 637
506, 277, 40, 278, 574, 289, 291, 293, 684, 689, 654
507, 15, 1, 195, 575, 26, 208, 207, 693, 637, 691
508, 3, 197, 109, 575, 215, 629, 112, 694, 635, 625
509, 278, 40, 573, 574, 291, 576, 675, 654, 689, 677
510, 196, 43, 202, 19, 664, 668, 230, 225, 183, 229
511, 20, 204, 44, 202, 232, 674, 186, 228, 233, 671
512, 353, 196, 66, 65, 581, 254, 379, 378, 253, 77
513, 343, 69, 199, 70, 390, 261, 667, 391, 81, 262
514, 343, 271, 92, 93, 666, 334, 419, 418, 333, 104
515, 353, 88, 89, 268, 411, 100, 410, 583, 326, 325
516, 108, 349, 109, 575, 365, 426, 111, 626, 695, 625
517, 94, 95, 340, 270, 106, 422, 423, 338, 337, 621
518, 89, 352, 274, 90, 413, 588, 328, 101, 412, 327
519, 67, 202, 66, 352, 256, 255, 78, 382, 586, 381
520, 64, 354, 65, 203, 375, 376, 76, 251, 595, 252
521, 91, 273, 92, 344, 332, 331, 103, 417, 590, 416
522, 344, 201, 69, 68, 592, 260, 388, 387, 259, 80
523, 354, 87, 88, 275, 409, 99, 408, 599, 324, 323
524, 347, 348, 109, 575, 371, 360, 429, 692, 690, 625
525, 16, 39, 15, 574, 176, 174, 27, 687, 688, 696
526, 340, 198, 72, 71, 619, 266, 397, 396, 265, 83
527, 277, 86, 85, 341, 319, 97, 320, 678, 402, 403
528, 62, 63, 205, 341, 74, 248, 247, 367, 368, 680
529, 85, 277, 341, 574, 320, 678, 403, 661, 684, 650
530, 351, 91, 276, 90, 415, 329, 617, 414, 102, 330
531, 68, 204, 67, 351, 258, 257, 79, 384, 616, 385
532, 21, 44, 20, 204, 185, 186, 32, 231, 674, 232
533, 42, 43, 196, 19, 54, 664, 663, 182, 183, 225
534, 86, 342, 278, 87, 407, 614, 322, 98, 406, 321
535, 206, 342, 63, 64, 622, 372, 249, 250, 373, 75
536, 17, 41, 275, 42, 178, 294, 681, 180, 53, 295
537, 202, 20, 19, 43, 228, 31, 229, 668, 184, 183
538, 43, 44, 202, 20, 55, 671, 668, 184, 186, 228
539, 39, 2, 15, 575, 50, 172, 174, 697, 679, 693
540, 3, 62, 195, 348, 73, 213, 212, 355, 356, 647
541, 339, 94, 272, 93, 420, 335, 602, 421, 105, 336
542, 71, 70, 339, 200, 82, 393, 394, 264, 263, 601
543, 205, 195, 347, 574, 218, 648, 686, 685, 698, 660
544, 1, 197, 195, 575, 209, 211, 208, 637, 635, 691
545, 195, 347, 574, 575, 648, 660, 698, 691, 692, 699
546, 267, 2, 39, 575, 279, 50, 280, 700, 679, 697
547, 15, 195, 574, 575, 207, 698, 696, 693, 691, 699
548, 267, 39, 574, 575, 280, 688, 683, 700, 697, 699
549, 205, 347, 341, 574, 686, 369, 680, 685, 660, 650
550, 85, 267, 277, 574, 284, 290, 320, 661, 683, 684
551, 205, 206, 16, 574, 221, 220, 216, 685, 651, 687
552, 3, 72, 345, 197, 84, 358, 357, 215, 214, 628
553, 16, 206, 573, 574, 220, 676, 578, 687, 651, 677
554, 573, 40, 16, 574, 576, 179, 578, 677, 689, 687
555, 109, 349, 347, 575, 426, 405, 429, 625, 695, 692
556, 267, 85, 4, 349, 284, 96, 285, 682, 362, 361
557, 195, 197, 3, 575, 211, 215, 212, 691, 635, 694
558, 4, 269, 267, 575, 286, 283, 285, 701, 636, 700
559, 574, 39, 15, 575, 688, 174, 696, 699, 697, 693
560, 278, 40, 41, 573, 291, 52, 292, 675, 576, 577
561, 39, 40, 277, 574, 51, 289, 288, 688, 689, 684
562, 350, 95, 4, 269, 364, 107, 363, 644, 287, 286
563, 267, 269, 2, 575, 283, 282, 279, 700, 636, 679
564, 17, 16, 206, 573, 28, 220, 219, 579, 578, 676
565, 205, 16, 15, 574, 216, 27, 217, 685, 687, 696
566, 15, 195, 205, 574, 207, 218, 217, 696, 698, 685
567, 267, 39, 277, 574, 280, 288, 290, 683, 688, 684
568, 275, 573, 41, 17, 702, 577, 294, 681, 579, 178
569, 41, 573, 275, 278, 577, 702, 294, 292, 675, 296
570, 275, 203, 573, 17, 598, 703, 702, 681, 223, 579
571, 573, 203, 275, 278, 703, 598, 702, 675, 613, 296
572, 203, 206, 573, 17, 224, 676, 703, 223, 219, 579
573, 573, 206, 203, 278, 676, 224, 703, 675, 623, 613
574, 343, 272, 199, 271, 646, 633, 667, 666, 314, 631
575, 272, 343, 200, 339, 646, 645, 603, 602, 395, 601
576, 343, 272, 200, 199, 646, 603, 645, 667, 633, 242
577, 273, 343, 199, 271, 640, 667, 665, 311, 666, 631
578, 273, 343, 201, 199, 640, 641, 591, 665, 667, 239
579, 343, 273, 201, 344, 640, 591, 641, 392, 590, 592
580, 196, 275, 353, 268, 662, 639, 581, 584, 299, 583
581, 275, 353, 203, 196, 639, 638, 598, 662, 581, 227
582, 353, 275, 203, 354, 639, 598, 638, 380, 599, 595
583, 89, 352, 268, 274, 413, 582, 325, 328, 588, 302
584, 352, 89, 268, 353, 413, 325, 582, 383, 410, 583
585, 66, 196, 352, 202, 254, 580, 381, 255, 230, 586
586, 196, 66, 352, 353, 254, 381, 580, 581, 379, 383
587, 90, 274, 351, 352, 327, 587, 414, 412, 588, 386
588, 351, 274, 90, 276, 587, 327, 414, 617, 305, 330
589, 67, 202, 351, 204, 256, 585, 385, 257, 233, 616
590, 202, 67, 351, 352, 256, 385, 585, 586, 382, 386
591, 68, 351, 201, 204, 384, 593, 259, 258, 616, 236
592, 201, 351, 68, 344, 593, 384, 259, 592, 389, 387
593, 91, 351, 273, 344, 415, 594, 332, 417, 389, 590
594, 273, 351, 91, 276, 594, 415, 332, 308, 617, 329
595, 4, 575, 350, 269, 701, 627, 363, 286, 636, 644
596, 350, 575, 4, 108, 627, 701, 363, 366, 626, 110
597, 575, 574, 349, 347, 699, 659, 695, 692, 660, 405
598, 349, 574, 575, 267, 659, 699, 695, 682, 683, 700
599, 349, 575, 4, 267, 695, 701, 361, 682, 700, 285
600, 4, 575, 349, 108, 701, 695, 361, 110, 626, 365
601, 348, 575, 3, 109, 690, 694, 355, 360, 625, 112
602, 3, 575, 348, 195, 694, 690, 355, 212, 691, 647
603, 434, 7, 5, 439, 705, 114, 704, 706, 441, 440
604, 6, 434, 5, 10, 436, 704, 113, 121, 437, 432
605, 12, 7, 8, 434, 433, 115, 123, 438, 705, 435
606, 6, 8, 5, 434, 116, 430, 113, 436, 435, 704
607, 434, 8, 5, 7, 435, 430, 704, 705, 115, 114
608, 439, 9, 12, 11, 442, 431, 707, 443, 118, 119
609, 439, 7, 12, 434, 441, 433, 707, 706, 705, 438
610, 12, 7, 439, 11, 433, 441, 707, 119, 124, 443
611, 10, 12, 439, 9, 120, 707, 708, 117, 431, 442
612, 439, 12, 10, 434, 707, 120, 708, 706, 438, 437
613, 439, 5, 10, 9, 440, 432, 708, 442, 122, 117
614, 10, 5, 439, 434, 432, 440, 708, 437, 704, 706
615, 523, 154, 526, 711, 549, 551, 553, 713, 712, 714
616, 154, 155, 526, 711, 166, 552, 551, 712, 715, 714
617, 523, 470, 153, 710, 717, 716, 548, 719, 718, 720
618, 153, 470, 129, 710, 716, 496, 457, 720, 718, 721
619, 474, 149, 527, 709, 723, 532, 722, 725, 724, 726
620, 523, 130, 470, 710, 727, 495, 717, 719, 728, 718
621, 473, 155, 131, 711, 729, 459, 498, 730, 715, 731
622, 153, 129, 154, 710, 457, 455, 165, 720, 721, 732
623, 477, 523, 153, 530, 734, 548, 733, 735, 550, 546
624, 529, 472, 476, 471, 737, 488, 736, 738, 519, 491
625, 524, 523, 477, 530, 570, 734, 739, 547, 550, 735
626, 159, 475, 521, 528, 741, 740, 533, 560, 742, 562
627, 127, 471, 529, 476, 490, 738, 743, 486, 491, 736
628, 473, 526, 155, 711, 744, 552, 729, 730, 714, 715
629, 130, 523, 154, 710, 727, 549, 456, 728, 719, 732
630, 471, 467, 470, 520, 516, 518, 517, 745, 434, 746
631, 471, 472, 467, 520, 519, 514, 516, 745, 747, 434
632, 470, 520, 523, 524, 746, 569, 717, 748, 571, 570
633, 472, 471, 525, 520, 519, 749, 750, 747, 745, 566
634, 468, 467, 472, 520, 512, 514, 513, 751, 434, 747
635, 525, 520, 471, 524, 566, 745, 749, 572, 571, 752
636, 468, 472, 521, 520, 513, 753, 754, 751, 747, 563
637, 471, 520, 470, 524, 745, 746, 517, 752, 571, 748
638, 521, 472, 525, 520, 753, 750, 567, 563, 747, 566
639, 14, 149, 527, 474, 160, 532, 531, 755, 723, 722
640, 126, 529, 476, 127, 756, 736, 487, 138, 743, 486
641, 524, 477, 152, 530, 739, 757, 543, 547, 735, 545
642, 477, 530, 153, 152, 735, 546, 733, 757, 545, 164
643, 475, 159, 158, 528, 741, 170, 758, 742, 560, 559
644, 14, 527, 468, 474, 531, 759, 760, 755, 722, 482
645, 529, 126, 476, 472, 756, 487, 736, 737, 483, 488
646, 129, 130, 154, 710, 141, 456, 455, 721, 728, 732
647, 474, 125, 149, 709, 478, 446, 723, 725, 761, 724
648, 525, 472, 529, 471, 750, 737, 541, 749, 519, 738
649, 153, 477, 470, 523, 733, 497, 716, 548, 734, 717
650, 159, 521, 475, 468, 533, 740, 741, 762, 754, 509
651, 525, 471, 529, 524, 749, 738, 541, 572, 752, 544
652, 524, 477, 523, 470, 739, 734, 570, 748, 497, 717
653, 477, 470, 524, 471, 497, 748, 739, 494, 517, 752
654, 127, 529, 471, 524, 743, 738, 490, 763, 544, 752
655, 473, 130, 470, 523, 499, 495, 500, 764, 727, 717
656, 153, 154, 523, 710, 165, 549, 548, 720, 732, 719
657, 14, 468, 521, 159, 760, 754, 534, 171, 762, 533
658, 127, 471, 128, 524, 490, 489, 139, 763, 752, 765
659, 527, 149, 525, 709, 532, 536, 538, 726, 724, 766
660, 521, 475, 522, 528, 740, 767, 564, 562, 742, 561
661, 522, 133, 156, 157, 768, 462, 555, 556, 465, 168
662, 159, 468, 475, 135, 762, 509, 741, 447, 481, 506
663, 470, 129, 477, 153, 496, 492, 497, 716, 457, 733
664, 477, 128, 471, 524, 493, 489, 494, 739, 765, 752
665, 14, 468, 13, 474, 760, 480, 148, 755, 482, 479
666, 468, 14, 521, 527, 760, 534, 754, 759, 531, 535
667, 529, 525, 150, 472, 541, 537, 539, 737, 750, 769
668, 529, 524, 127, 151, 544, 763, 743, 540, 542, 451
669, 468, 521, 469, 520, 754, 770, 511, 751, 563, 771
670, 473, 523, 470, 520, 764, 717, 500, 772, 569, 746
671, 469, 467, 468, 520, 510, 512, 511, 771, 434, 751
672, 473, 470, 467, 520, 500, 518, 515, 772, 746, 434
673, 130, 129, 470, 710, 141, 496, 495, 728, 721, 718
674, 524, 151, 128, 127, 542, 452, 765, 763, 451, 139
675, 468, 14, 135, 159, 760, 445, 481, 762, 171, 447
676, 468, 13, 135, 14, 480, 147, 481, 760, 148, 445
677, 522, 475, 158, 528, 767, 758, 558, 561, 742, 559
678, 469, 468, 475, 521, 511, 509, 508, 770, 754, 740
679, 474, 14, 125, 13, 755, 444, 478, 479, 148, 136
680, 149, 14, 125, 474, 160, 444, 446, 723, 755, 478
681, 529, 127, 126, 151, 743, 138, 756, 540, 451, 450
682, 475, 135, 158, 159, 506, 466, 758, 741, 447, 170
683, 477, 153, 129, 152, 733, 457, 492, 757, 164, 453
684, 524, 152, 477, 128, 543, 757, 739, 765, 454, 493
685, 475, 158, 135, 134, 758, 466, 506, 507, 464, 146
686, 150, 126, 529, 472, 449, 756, 539, 769, 483, 737
687, 152, 151, 128, 524, 163, 452, 454, 543, 542, 765
688, 125, 126, 150, 472, 137, 449, 448, 484, 483, 769
689, 133, 132, 469, 522, 144, 503, 502, 768, 773, 774
690, 522, 156, 133, 132, 555, 462, 768, 773, 461, 144
691, 134, 475, 158, 522, 507, 758, 464, 775, 767, 558
692, 126, 150, 529, 151, 449, 539, 756, 450, 162, 540
693, 477, 129, 128, 152, 492, 140, 493, 757, 453, 454
694, 469, 521, 522, 520, 770, 564, 774, 771, 563, 565
695, 523, 473, 526, 520, 764, 744, 553, 569, 772, 568
696, 467, 469, 473, 520, 510, 504, 515, 434, 771, 772
697, 522, 132, 469, 473, 773, 503, 774, 776, 501, 504
698, 132, 156, 526, 522, 461, 554, 777, 773, 555, 557
699, 526, 473, 132, 522, 744, 501, 777, 557, 776, 773
700, 522, 158, 133, 157, 558, 463, 768, 556, 169, 465
701, 522, 133, 158, 134, 768, 463, 558, 775, 145, 464
702, 472, 125, 474, 709, 484, 478, 485, 778, 761, 725
703, 475, 134, 469, 522, 507, 505, 508, 767, 775, 774
704, 521, 522, 475, 469, 564, 767, 740, 770, 774, 508
705, 134, 133, 469, 522, 145, 502, 505, 775, 768, 774
706, 523, 526, 473, 711, 553, 744, 764, 713, 714, 730
707, 522, 473, 469, 520, 776, 504, 774, 565, 772, 771
708, 473, 522, 526, 520, 776, 557, 744, 772, 565, 568
709, 132, 155, 131, 473, 460, 459, 143, 501, 729, 498
710, 154, 131, 155, 711, 458, 459, 166, 712, 731, 715
711, 155, 156, 526, 132, 167, 554, 552, 460, 461, 777
712, 155, 132, 526, 473, 460, 777, 552, 729, 501, 744
713, 150, 149, 709, 525, 161, 724, 779, 537, 536, 766
714, 709, 149, 150, 125, 724, 161, 779, 761, 446, 448
715, 709, 472, 150, 525, 778, 769, 779, 766, 750, 537
716, 150, 472, 709, 125, 769, 778, 779, 448, 484, 761
717, 468, 709, 474, 527, 780, 725, 482, 759, 726, 722
718, 474, 709, 468, 472, 725, 780, 482, 485, 778, 513
719, 468, 521, 709, 527, 754, 781, 780, 759, 535, 726
720, 709, 521, 468, 472, 781, 754, 780, 778, 753, 513
721, 521, 525, 709, 527, 567, 766, 781, 535, 538, 726
722, 709, 525, 521, 472, 766, 567, 781, 778, 750, 753
723, 130, 711, 473, 131, 782, 730, 499, 142, 731, 498
724, 711, 130, 473, 523, 782, 499, 730, 713, 727, 764
725, 711, 130, 154, 131, 782, 456, 712, 731, 142, 458
726, 130, 711, 154, 523, 782, 712, 456, 727, 713, 549

** Define element set Eall
*ELSET, ELSET=Eall
Evolumes



***********************************************************
** Element sets for materials and FEM element type (solid, shell, beam, fluid)
*ELSET,ELSET=FEMPart002_MaterialSolid
Evolumes

** Physical constants for SI(mm) unit system with Kelvins
*PHYSICAL CONSTANTS, ABSOLUTE ZERO=0, STEFAN BOLTZMANN=5.670374419e-11

***********************************************************
** Materials
** see information about units at file end
** FreeCAD material name: CalculiX-Steel
** Material (FEMPart (LongPendulum001))
*MATERIAL, NAME=FEMPart002_Material
*ELASTIC
210000,0.3
*DENSITY
7.9E-09
*EXPANSION, ZERO=0
1.2E-05

***********************************************************
** Sections
*SOLID SECTION, ELSET=FEMPart002_MaterialSolid, MATERIAL=FEMPart002_Material

***********************************************************
** At least one step is needed to run an CalculiX analysis of FreeCAD
*STEP, INC=2000
*STATIC
1.0,1.0,1e-05,1.0

***********************************************************
** Automatic 3-2-1 constraints
** nodeXYZ 167: x=-19.7989898732, y=-5, z=28.2010101268
** nodeYZ 164: x=19.7989898732, y=-5, z=28.2010101268
** nodeZ 140: x=19.7989898732, y=5, z=28.2010101268
*BOUNDARY
167,1,1,0
167,2,2,0
167,3,3,0
164,2,2,0
164,3,3,0
140,3,3,0

***********************************************************
** MbDPart D'Alembert element loads
*DLOAD
15,GRAV,16402442.02104,0.8759399623355,4.991341648066E-18,0.4824201305746
16,GRAV,16043599.6044,0.8957051611374,6.079426580679E-18,0.4446484727421
17,GRAV,15402298.28191,0.9078638548751,6.791887036745E-18,0.4192650963428
18,GRAV,14626850.62653,0.9099603712679,6.918704807348E-18,0.4146952166616
19,GRAV,13920433.27959,0.9001694138943,6.337062253496E-18,0.4355399250233
20,GRAV,13495756.57622,0.8783970139927,5.122880641178E-18,0.4779316748331
21,GRAV,13495756.55185,0.849353732091,3.636562078151E-18,0.5278240594962
22,GRAV,13920433.21503,0.8232423872823,2.400245888986E-18,0.5676900314272
23,GRAV,14626850.5426,0.8099512409848,1.800639062274E-18,0.5864972184309
24,GRAV,15402298.2022,0.8128898070834,1.931496608191E-18,0.5824175147949
25,GRAV,16043599.54838,0.8289584475277,2.663597783325E-18,0.5593101932492
26,GRAV,16402442.00099,0.8520434555939,3.768414384634E-18,0.5234710591614
27,GRAV,16502196.51311,0.8642354816341,4.381101071323E-18,0.5030874996308
28,GRAV,16402442.02104,0.8759399623355,4.991341648066E-18,0.4824201305746
29,GRAV,16043599.6044,0.8957051611374,6.079426580679E-18,0.4446484727421
30,GRAV,15402298.28191,0.9078638548751,6.791887036745E-18,0.4192650963428
31,GRAV,14626850.62653,0.9099603712679,6.918704807348E-18,0.4146952166616
32,GRAV,13920433.27959,0.9001694138943,6.337062253496E-18,0.4355399250233
33,GRAV,13495756.57622,0.8783970139927,5.122880641178E-18,0.4779316748331
34,GRAV,13495756.55185,0.849353732091,3.636562078151E-18,0.5278240594962
35,GRAV,13920433.21503,0.8232423872823,2.400245888986E-18,0.5676900314272
36,GRAV,14626850.5426,0.8099512409848,1.800639062274E-18,0.5864972184309
37,GRAV,15402298.2022,0.8128898070834,1.931496608191E-18,0.5824175147949
38,GRAV,16043599.54838,0.8289584475277,2.663597783325E-18,0.5593101932492
39,GRAV,16402442.00099,0.8520434555939,3.768414384634E-18,0.5234710591614
40,GRAV,15526292.66939,0.8692409552024,4.639393503283E-18,0.4943886748287
41,GRAV,15375583.1649,0.8778334802033,5.092415556455E-18,0.4789659497648
42,GRAV,15110990.67898,0.8829562490345,5.368858619724E-18,0.4694552825253
43,GRAV,14799581.9554,0.8833364011419,5.389615023143E-18,0.46873958913
44,GRAV,14524500.2472,0.8786097133556,5.134108863701E-18,0.4775405444537
45,GRAV,14363283.07109,0.8696424446751,4.66045013903E-18,0.4936821025919
46,GRAV,14363283.06192,0.8587268047948,4.101831516344E-18,0.5124336783691
47,GRAV,14524500.22245,0.8491186458839,3.624874438168E-18,0.528202163203
48,GRAV,14799581.92222,0.8437996463245,3.366282654771E-18,0.5366583241343
49,GRAV,15110990.64648,0.8442342713586,3.387223275853E-18,0.535974341796
50,GRAV,15375583.14152,0.8499748283829,3.666721613297E-18,0.5268233016063
51,GRAV,15526292.66092,0.8591429601802,4.122618663345E-18,0.5117356485264
52,GRAV,15526292.66939,0.8692409552024,4.639393503283E-18,0.4943886748287
53,GRAV,15375583.1649,0.8778334802033,5.092415556455E-18,0.4789659497648
54,GRAV,15110990.67898,0.8829562490345,5.368858619724E-18,0.4694552825253
55,GRAV,14799581.9554,0.8833364011419,5.389615023143E-18,0.46873958913
56,GRAV,14524500.2472,0.8786097133556,5.134108863701E-18,0.4775405444537
57,GRAV,14363283.07109,0.8696424446751,4.66045013903E-18,0.4936821025919
58,GRAV,14363283.06192,0.8587268047948,4.101831516344E-18,0.5124336783691
59,GRAV,14524500.22245,0.8491186458839,3.624874438168E-18,0.528202163203
60,GRAV,14799581.92222,0.8437996463245,3.366282654771E-18,0.5366583241343
61,GRAV,15110990.64648,0.8442342713586,3.387223275853E-18,0.535974341796
62,GRAV,15375583.14152,0.8499748283829,3.666721613297E-18,0.5268233016063
63,GRAV,15526292.66092,0.8591429601802,4.122618663345E-18,0.5117356485264
64,GRAV,15567263.16696,0.8642354824071,4.381221036878E-18,0.5030874983028
65,GRAV,15567263.16696,0.8642354824071,4.381221036878E-18,0.5030874983028
66,GRAV,15567263.16696,0.8642354824071,4.381221036878E-18,0.5030874983028
67,GRAV,8875460.673513,0.8413214729968,3.248571970272E-18,0.5405350858867
68,GRAV,14014456.13641,0.8499173713273,3.664109901032E-18,0.5269159913271
69,GRAV,8875460.673513,0.8413214729968,3.248571970272E-18,0.5405350858867
70,GRAV,3745089.50758,0.807217442621,1.686111382568E-18,0.5902541828131
71,GRAV,8875460.710575,0.8854838060882,5.508622929166E-18,0.464670237002
72,GRAV,14014456.15988,0.8778857105194,5.095417209366E-18,0.4788702112952
73,GRAV,8875460.710575,0.8854838060882,5.508622929166E-18,0.464670237002
74,GRAV,3745089.595414,0.9118774253891,7.042189775573E-18,0.4104626183537
75,GRAV,3724774.115797,0.8642355257878,4.387953294438E-18,0.5030874237806
76,GRAV,14009040.92339,0.8642354839247,4.381456562775E-18,0.5030874956957
77,GRAV,3724774.115797,0.8642355257878,4.387953294438E-18,0.5030874237806
78,GRAV,14009040.92339,0.8642354839247,4.381456562775E-18,0.5030874956957
79,GRAV,5785912.65254,0.9078084492152,6.792110780177E-18,0.4193850492489
80,GRAV,5423464.566566,0.9691947019742,1.12899292329E-17,0.2462958173928
81,GRAV,4730429.258225,0.9966093475854,1.503779574404E-17,0.08227884482241
82,GRAV,3775092.679093,0.9991066937109,1.757803132281E-17,-0.0422588994418
83,GRAV,2685948.040631,0.9981472836752,1.793809984033E-17,-0.06084406373505
84,GRAV,1775245.888224,0.9769966902679,1.209539546088E-17,0.2132544658516
85,GRAV,1775245.628811,0.6678872045501,-3.723591760093E-18,0.7442625087953
86,GRAV,2685947.572205,0.4399829396455,-1.062651473325E-17,0.8980061318392
87,GRAV,3775092.223822,0.4566177761425,-1.018437616419E-17,0.8896629735527
88,GRAV,4730428.894899,0.563679092741,-7.117838234712E-18,0.8259938743154
89,GRAV,5423464.33458,0.6927661472776,-2.856575328634E-18,0.7211623015565
90,GRAV,5785912.572946,0.8129668079674,1.938496046237E-18,0.5823100283726
91,GRAV,5906285.256801,0.8642355047254,4.384684609852E-18,0.5030874599631
92,GRAV,5785912.65254,0.9078084492152,6.792110780177E-18,0.4193850492489
93,GRAV,5423464.566566,0.9691947019742,1.12899292329E-17,0.2462958173928
94,GRAV,4730429.258225,0.9966093475854,1.503779574404E-17,0.08227884482241
95,GRAV,3775092.679093,0.9991066937109,1.757803132281E-17,-0.0422588994418
96,GRAV,2685948.040631,0.9981472836752,1.793809984033E-17,-0.06084406373505
97,GRAV,1775245.888224,0.9769966902679,1.209539546088E-17,0.2132544658516
98,GRAV,1775245.628811,0.6678872045501,-3.723591760093E-18,0.7442625087953
99,GRAV,2685947.572205,0.4399829396455,-1.062651473325E-17,0.8980061318392
100,GRAV,3775092.223822,0.4566177761425,-1.018437616419E-17,0.8896629735527
101,GRAV,4730428.894899,0.563679092741,-7.117838234712E-18,0.8259938743154
102,GRAV,5423464.33458,0.6927661472776,-2.856575328634E-18,0.7211623015565
103,GRAV,5785912.572946,0.8129668079674,1.938496046237E-18,0.5823100283726
104,GRAV,16434661.19346,0.8720774574666,4.787405756314E-18,0.4893678659031
105,GRAV,16434661.18012,0.8561776847577,3.973719231462E-18,0.5166814996909
106,GRAV,16371263.36524,0.8797617522238,5.195750045728E-18,0.4754148286751
107,GRAV,16371263.33845,0.8478390628429,3.562074982223E-18,0.5302536407397
108,GRAV,16132459.62387,0.892899493444,5.920038886528E-18,0.4502560322832
109,GRAV,15276382.39181,0.9091466313365,6.869285617075E-18,0.4164761730633
110,GRAV,15955377.37653,0.8985061633634,6.240340238351E-18,0.4389609030404
111,GRAV,15528356.96267,0.9065935454491,6.715681928212E-18,0.422004909154
112,GRAV,14494199.72981,0.9093380675533,6.880988972623E-18,0.4160580234755
113,GRAV,14759533.76312,0.9105695000837,6.95572750685E-18,0.4133560033644
114,GRAV,14022753.94142,0.9028699725577,6.495035800375E-18,0.429913726989
115,GRAV,13534896.75152,0.8829050781683,5.366326928839E-18,0.4695515125572
116,GRAV,13818662.79682,0.8973931305035,6.17650325233E-18,0.44123187705
117,GRAV,13457845.47493,0.854366184715,3.883902291695E-18,0.5196714562254
118,GRAV,13457845.49123,0.8737829164048,4.877572664272E-18,0.4863161677336
119,GRAV,14022753.87161,0.81968355392,2.237888884631E-18,0.5728166123927
120,GRAV,13534896.71912,0.8442926853195,3.390299686488E-18,0.5358823205853
121,GRAV,13818662.7376,0.8268210051601,2.564905218864E-18,0.5624651326314
122,GRAV,14494199.64714,0.810829002853,1.839690559132E-18,0.5852831179288
123,GRAV,15528356.8855,0.8146449853685,2.010123814409E-18,0.5799599536295
124,GRAV,14759533.67795,0.8090874895423,1.76228566597E-18,0.5876882117808
125,GRAV,15276382.30952,0.8110980800052,1.851554440347E-18,0.5849101679847
126,GRAV,15955377.31517,0.8253958470808,2.498847806924E-18,0.5645544221966
127,GRAV,16132459.57314,0.8324491695349,2.826434033067E-18,0.554101416837
128,GRAV,16248049.03445,0.8748250044519,4.93222487906E-18,0.4844390690126
129,GRAV,16242669.08213,0.8531982131179,3.825535778384E-18,0.5215868184037
130,GRAV,16120191.53764,0.8641902187165,4.378832178099E-18,0.5031652470856
131,GRAV,15663960.47215,0.8703560598774,4.697447029141E-18,0.4924229168455
132,GRAV,15658566.42306,0.8579344786276,4.06180874649E-18,0.5137591170792
133,GRAV,15808547.09021,0.8641893266019,4.378826827714E-18,0.5031667792963
134,GRAV,15918875.65006,0.8927313512405,5.910570506109E-18,0.4505893191281
135,GRAV,15972760.06551,0.8822099405895,5.328163743259E-18,0.4708562633385
136,GRAV,15343973.25952,0.9034731656327,6.530370931173E-18,0.4286446535087
137,GRAV,15559542.06507,0.8951149781197,6.045818211107E-18,0.4458353686572
138,GRAV,14656955.20039,0.9053453928033,6.641368548859E-18,0.4246760173707
139,GRAV,14990706.83535,0.9007885500175,6.372955719399E-18,0.4342579742013
140,GRAV,14024403.5726,0.8963897125956,6.11887819803E-18,0.4432668306482
141,GRAV,14393263.51886,0.8976950057687,6.193779686449E-18,0.4406173812027
142,GRAV,13651944.28578,0.8766541175876,5.029740684941E-18,0.4811211470272
143,GRAV,13936976.15244,0.8846527862326,5.461687094262E-18,0.4662504132018
144,GRAV,13658287.19981,0.8512262583831,3.728521146762E-18,0.5247988729401
145,GRAV,13776583.41357,0.8641913482734,4.3792377206E-18,0.5031633070578
146,GRAV,14025484.11797,0.828314749294,2.634017436564E-18,0.5602630418848
147,GRAV,13944557.6001,0.8424601192633,3.301891873889E-18,0.5387587098608
148,GRAV,14653359.60721,0.8161819627141,2.079378012627E-18,0.5777949495627
149,GRAV,14390655.23202,0.826485357423,2.549307554426E-18,0.5629582168912
150,GRAV,15343224.28885,0.8188491925255,2.199823254169E-18,0.5740087106485
151,GRAV,14986312.39965,0.8222427598066,2.35433996759E-18,0.5691369289948
152,GRAV,15917989.58427,0.8326456893452,2.835671824142E-18,0.5538060635411
153,GRAV,15557894.18027,0.8296613676014,2.696340682323E-18,0.5582669747619
154,GRAV,15966512.46744,0.8450195688175,3.425088101075E-18,0.5347353815818
155,GRAV,15473661.86808,0.8807992979371,5.251824225125E-18,0.4734898063882
156,GRAV,15697978.99812,0.8777999541234,5.09057868451E-18,0.4790273901782
157,GRAV,15150399.6939,0.8868173471933,5.580528588845E-18,0.4621201063761
158,GRAV,15388685.54796,0.8874788374382,5.617059470721E-18,0.4608484708658
159,GRAV,14772639.47296,0.887567197773,5.622039747189E-18,0.4606782710714
160,GRAV,14969662.37529,0.8915814068469,5.84592432523E-18,0.4528604586017
161,GRAV,14427373.7194,0.8820092386079,5.317490732126E-18,0.4712321116077
162,GRAV,14532282.69258,0.8890309142612,5.703331499948E-18,0.4578471726329
163,GRAV,14230384.72805,0.870828556286,4.722328351793E-18,0.4915868443692
164,GRAV,14201050.02361,0.8791070234137,5.160850007716E-18,0.4766244238231
165,GRAV,14236714.63899,0.8574498870595,4.037702602752E-18,0.5145674797164
166,GRAV,14088227.86111,0.8641923243308,4.379234753318E-18,0.5031616306594
167,GRAV,14428626.59222,0.8455138915899,3.449257908393E-18,0.533953424119
168,GRAV,14208684.16695,0.8487327877247,3.606041531067E-18,0.5288219502262
169,GRAV,14768874.26342,0.8387259863094,3.123086517907E-18,0.5445536887115
170,GRAV,14529699.37736,0.837189532446,3.050111762091E-18,0.5469128694434
171,GRAV,15149622.62939,0.8397359969517,3.171185036212E-18,0.5429948944728
172,GRAV,14965164.67767,0.8338813216539,2.893818586434E-18,0.5519437846346
173,GRAV,15472768.49865,0.8466681053194,3.50515072883E-18,0.5321213390148
174,GRAV,15387020.19587,0.8389471000477,3.133528126552E-18,0.5442129760686
175,GRAV,15691713.80971,0.8499490630407,3.665413875519E-18,0.5268648690473
176,GRAV,16248049.03445,0.8748250044519,4.93222487906E-18,0.4844390690126
177,GRAV,16242669.08213,0.8531982131179,3.825535778384E-18,0.5215868184037
178,GRAV,16120191.53764,0.8641902187165,4.378832178099E-18,0.5031652470856
179,GRAV,15663960.47215,0.8703560598774,4.697447029141E-18,0.4924229168455
180,GRAV,15658566.42306,0.8579344786276,4.06180874649E-18,0.5137591170792
181,GRAV,15808547.09021,0.8641893266019,4.378826827714E-18,0.5031667792963
182,GRAV,15918875.65006,0.8927313512405,5.910570506109E-18,0.4505893191281
183,GRAV,15972760.06551,0.8822099405895,5.328163743259E-18,0.4708562633385
184,GRAV,15343973.25952,0.9034731656327,6.530370931173E-18,0.4286446535087
185,GRAV,15559542.06507,0.8951149781197,6.045818211107E-18,0.4458353686572
186,GRAV,14656955.20039,0.9053453928033,6.641368548859E-18,0.4246760173707
187,GRAV,14990706.83535,0.9007885500175,6.372955719399E-18,0.4342579742013
188,GRAV,14024403.5726,0.8963897125956,6.11887819803E-18,0.4432668306482
189,GRAV,14393263.51886,0.8976950057687,6.193779686449E-18,0.4406173812027
190,GRAV,13651944.28578,0.8766541175876,5.029740684941E-18,0.4811211470272
191,GRAV,13936976.15244,0.8846527862326,5.461687094262E-18,0.4662504132018
192,GRAV,13658287.19981,0.8512262583831,3.728521146762E-18,0.5247988729401
193,GRAV,13776583.41357,0.8641913482734,4.3792377206E-18,0.5031633070578
194,GRAV,14025484.11797,0.828314749294,2.634017436564E-18,0.5602630418848
195,GRAV,13944557.6001,0.8424601192633,3.301891873889E-18,0.5387587098608
196,GRAV,14653359.60721,0.8161819627141,2.079378012627E-18,0.5777949495627
197,GRAV,14390655.23202,0.826485357423,2.549307554426E-18,0.5629582168912
198,GRAV,15343224.28885,0.8188491925255,2.199823254169E-18,0.5740087106485
199,GRAV,14986312.39965,0.8222427598066,2.35433996759E-18,0.5691369289948
200,GRAV,15917989.58427,0.8326456893452,2.835671824142E-18,0.5538060635411
201,GRAV,15557894.18027,0.8296613676014,2.696340682323E-18,0.5582669747619
202,GRAV,15966512.46744,0.8450195688175,3.425088101075E-18,0.5347353815818
203,GRAV,15473661.86808,0.8807992979371,5.251824225125E-18,0.4734898063882
204,GRAV,15697978.99812,0.8777999541234,5.09057868451E-18,0.4790273901782
205,GRAV,15150399.6939,0.8868173471933,5.580528588845E-18,0.4621201063761
206,GRAV,15388685.54796,0.8874788374382,5.617059470721E-18,0.4608484708658
207,GRAV,14772639.47296,0.887567197773,5.622039747189E-18,0.4606782710714
208,GRAV,14969662.37529,0.8915814068469,5.84592432523E-18,0.4528604586017
209,GRAV,14427373.7194,0.8820092386079,5.317490732126E-18,0.4712321116077
210,GRAV,14532282.69258,0.8890309142612,5.703331499948E-18,0.4578471726329
211,GRAV,14230384.72805,0.870828556286,4.722328351793E-18,0.4915868443692
212,GRAV,14201050.02361,0.8791070234137,5.160850007716E-18,0.4766244238231
213,GRAV,14236714.63899,0.8574498870595,4.037702602752E-18,0.5145674797164
214,GRAV,14088227.86111,0.8641923243308,4.379234753318E-18,0.5031616306594
215,GRAV,14428626.59222,0.8455138915899,3.449257908393E-18,0.533953424119
216,GRAV,14208684.16695,0.8487327877247,3.606041531067E-18,0.5288219502262
217,GRAV,14768874.26342,0.8387259863094,3.123086517907E-18,0.5445536887115
218,GRAV,14529699.37736,0.837189532446,3.050111762091E-18,0.5469128694434
219,GRAV,15149622.62939,0.8397359969517,3.171185036212E-18,0.5429948944728
220,GRAV,14965164.67767,0.8338813216539,2.893818586434E-18,0.5519437846346
221,GRAV,15472768.49865,0.8466681053194,3.50515072883E-18,0.5321213390148
222,GRAV,15387020.19587,0.8389471000477,3.133528126552E-18,0.5442129760686
223,GRAV,15691713.80971,0.8499490630407,3.665413875519E-18,0.5268648690473
224,GRAV,15533148.94222,0.8692970798536,4.642310462999E-18,0.49428998266
225,GRAV,15533148.93365,0.8590848548943,4.119689793539E-18,0.5118331877588
226,GRAV,15560276.72845,0.8624917582732,4.292223135908E-18,0.5060711085517
227,GRAV,15560276.73137,0.8659688854173,4.470168541824E-18,0.5000978799087
228,GRAV,15534735.21401,0.8690866469379,4.631372622078E-18,0.4946598832676
229,GRAV,15534735.2058,0.8593025971287,4.130664237606E-18,0.5114675420472
230,GRAV,15561907.2145,0.8657566989672,4.459254646218E-18,0.5004651218551
231,GRAV,15561907.21194,0.8627063227042,4.303148636912E-18,0.5057052508786
232,GRAV,15374291.41908,0.8781876760897,5.111369431177E-18,0.4783162192151
233,GRAV,15456920.30097,0.8752057717576,4.95249927891E-18,0.4837508212728
234,GRAV,15515410.82802,0.8720449137486,4.785817308488E-18,0.4894258558813
235,GRAV,15110753.28911,0.8831882194103,5.381492958595E-18,0.4690187300043
236,GRAV,15248933.63853,0.8813375313451,5.280963806619E-18,0.4724872017765
237,GRAV,14798021.40883,0.8835550216576,5.401538338874E-18,0.4683273680915
238,GRAV,14954051.78924,0.8840300112926,5.427452175208E-18,0.4674301435874
239,GRAV,14519644.17621,0.8787790519426,5.143192503975E-18,0.4772288527184
240,GRAV,14648910.57561,0.8817916282448,5.305653139364E-18,0.4716391887423
241,GRAV,14356465.34945,0.8697079914303,4.66386340431E-18,0.4935666212806
242,GRAV,14419668.85098,0.8746686512215,4.924206859653E-18,0.4847213122717
243,GRAV,14356465.34018,0.8586587528563,4.098407736866E-18,0.5125477013346
244,GRAV,14334844.07488,0.8642354835801,4.381403083706E-18,0.5030874962877
245,GRAV,14519644.15116,0.8489312278475,3.615700706832E-18,0.5285033305337
246,GRAV,14419668.83314,0.8534167217914,3.836618438299E-18,0.5212292192182
247,GRAV,14798021.37525,0.8435491465093,3.354198275506E-18,0.5370519876358
248,GRAV,14648910.5452,0.8455582396255,3.451373788881E-18,0.5338831926569
249,GRAV,15110753.2562,0.8439692058011,3.374421311325E-18,0.5363916289983
250,GRAV,14954051.75481,0.8430034974662,3.327879923219E-18,0.537908080679
251,GRAV,15374291.39508,0.8495847448367,3.647586255061E-18,0.5274521412799
252,GRAV,15248933.60893,0.8460714111734,3.476185374811E-18,0.5330695706895
253,GRAV,15456920.2822,0.852838041125,3.807808635449E-18,0.5221755218412
254,GRAV,15515410.81474,0.8562120425182,3.975554530766E-18,0.5166245621791
255,GRAV,15374291.41908,0.8781876760897,5.111369431177E-18,0.4783162192151
256,GRAV,15456920.30097,0.8752057717576,4.95249927891E-18,0.4837508212728
257,GRAV,15516960.14691,0.8718360356041,4.774863664739E-18,0.489797843015
258,GRAV,15110753.28911,0.8831882194103,5.381492958595E-18,0.4690187300043
259,GRAV,15248933.63853,0.8813375313451,5.280963806619E-18,0.4724872017765
260,GRAV,14798021.40883,0.8835550216576,5.401538338874E-18,0.4683273680915
261,GRAV,14954051.78924,0.8840300112926,5.427452175208E-18,0.4674301435874
262,GRAV,14519644.17621,0.8787790519426,5.143192503975E-18,0.4772288527184
263,GRAV,14648910.57561,0.8817916282448,5.305653139364E-18,0.4716391887423
264,GRAV,14356465.34945,0.8697079914303,4.66386340431E-18,0.4935666212806
265,GRAV,14419668.85098,0.8746686512215,4.924206859653E-18,0.4847213122717
266,GRAV,14356465.34018,0.8586587528563,4.098407736866E-18,0.5125477013346
267,GRAV,14334844.07488,0.8642354835801,4.381403083706E-18,0.5030874962877
268,GRAV,14519644.15116,0.8489312278475,3.615700706832E-18,0.5285033305337
269,GRAV,14419668.83314,0.8534167217914,3.836618438299E-18,0.5212292192182
270,GRAV,14798021.37525,0.8435491465093,3.354198275506E-18,0.5370519876358
271,GRAV,14648910.5452,0.8455582396255,3.451373788881E-18,0.5338831926569
272,GRAV,15110753.2562,0.8439692058011,3.374421311325E-18,0.5363916289983
273,GRAV,14954051.75481,0.8430034974662,3.327879923219E-18,0.537908080679
274,GRAV,15374291.39508,0.8495847448367,3.647586255061E-18,0.5274521412799
275,GRAV,15248933.60893,0.8460714111734,3.476185374811E-18,0.5330695706895
276,GRAV,15456920.2822,0.852838041125,3.807808635449E-18,0.5221755218412
277,GRAV,15516960.13398,0.856432366893,3.986565748633E-18,0.516259238114
278,GRAV,15561907.2145,0.8657566989672,4.459254646218E-18,0.5004651218551
279,GRAV,15561907.21194,0.8627063227042,4.303148636912E-18,0.5057052508786
280,GRAV,15541957.70254,0.859659978294,4.148691409845E-18,0.5108666379003
281,GRAV,15543551.40773,0.8598771272376,4.159654685632E-18,0.5105010539202
282,GRAV,15541957.71017,0.868740594366,4.613400880058E-18,0.4952673820277
283,GRAV,15543551.415,0.8685299221596,4.602469987168E-18,0.4956367362428
284,GRAV,7163463.062087,0.8355983092622,2.97713471019E-18,0.5493409374498
285,GRAV,10588120.6155,0.8451408891668,3.432011433072E-18,0.5345436160487
286,GRAV,7163463.108007,0.8903150069182,5.777315735878E-18,0.4553451311436
287,GRAV,10588120.64657,0.8821598342892,5.326492443717E-18,0.470950131932
288,GRAV,7154041.601085,0.8549616648425,3.915678338574E-18,0.5186911910277
289,GRAV,10581748.74847,0.8703439553755,4.697825907174E-18,0.4924443109037
290,GRAV,7154041.601085,0.8549616648425,3.915678338574E-18,0.5186911910277
291,GRAV,10581748.74847,0.8703439553755,4.697825907174E-18,0.4924443109037
292,GRAV,3733816.815268,0.827150493646,2.586576719467E-18,0.5619804808543
293,GRAV,3724774.115797,0.8642355257878,4.387953294438E-18,0.5030874237806
294,GRAV,3724774.115797,0.8642355257878,4.387953294438E-18,0.5030874237806
295,GRAV,3733816.874001,0.8971344669326,6.16807594827E-18,0.4417575672714
296,GRAV,14011447.9405,0.8547622357181,3.903499004592E-18,0.5190197687856
297,GRAV,14009040.92339,0.8642354839247,4.381456562775E-18,0.5030874956957
298,GRAV,14009040.92339,0.8642354839247,4.381456562775E-18,0.5030874956957
299,GRAV,14011447.95615,0.8734117983034,4.857908740645E-18,0.4869823719442
300,GRAV,5820230.465677,0.8939750351129,5.984546378593E-18,0.448116766697
301,GRAV,5820230.412928,0.8311200841203,2.76788213588E-18,0.556092983027
302,GRAV,5757545.520899,0.9208542130722,7.601447541516E-18,0.3899070636282
303,GRAV,5757545.414251,0.7937756512539,1.098076532885E-18,0.6082106670196
304,GRAV,5334603.35135,0.9763295789841,1.201102753853E-17,0.2162881254272
305,GRAV,5517316.879294,0.9614193493866,1.058249794683E-17,0.2750869582969
306,GRAV,4588911.59531,0.9984468646633,1.560135923541E-17,0.05571228270263
307,GRAV,4875105.635548,0.9942339718302,1.44975729593E-17,0.1072325009441
308,GRAV,3954872.792984,0.9996119134475,1.72973714893E-17,-0.02785718029336
309,GRAV,2870737.665386,0.9972827037214,1.817995979271E-17,-0.07366959249292
310,GRAV,3596174.817216,0.9983115261524,1.788247070697E-17,-0.0580869757463
311,GRAV,1680488.875014,0.9526119846572,9.865318458661E-18,0.3041881106939
312,GRAV,2501667.776436,0.9989361835435,1.765690605343E-17,-0.04611400229478
313,GRAV,1884090.157463,0.991441340847,1.39940459293E-17,0.1305529304901
314,GRAV,1680488.69232,0.7349192550586,-1.275325124678E-18,0.6781546199386
315,GRAV,2501667.318424,0.4531813722844,-1.02726388329E-17,0.8914183326668
316,GRAV,1884089.831561,0.6031050982304,-5.879449246287E-18,0.7976617331228
317,GRAV,3596174.350731,0.4424614711371,-1.056370637954E-17,0.8967875147209
318,GRAV,2870737.187967,0.4284032665538,-1.093300988571E-17,0.9035876499854
319,GRAV,4875105.291441,0.5842051181393,-6.486059116841E-18,0.8116060497186
320,GRAV,3954872.348008,0.4693905832872,-9.837229920376E-18,0.882990645659
321,GRAV,4588911.211816,0.5414849314101,-7.784119704976E-18,0.8407104549462
322,GRAV,5334603.094434,0.6701955419949,-3.655684458997E-18,0.7421845696928
323,GRAV,5517316.671622,0.7139626028695,-2.081345676532E-18,0.7001838342206
324,GRAV,5600425.75703,0.9054459459723,6.650985975511E-18,0.4244615870987
325,GRAV,5464757.715899,0.8187142839699,2.197590331323E-18,0.5742011156587
326,GRAV,5312315.977862,0.8675930256636,4.558030642675E-18,0.4972749157356
327,GRAV,5140941.585007,0.9611507800264,1.055965732781E-17,0.2760238722548
328,GRAV,5173895.684288,0.928964790887,8.133558107206E-18,0.3701680932932
329,GRAV,4610459.924932,0.993574302052,1.436765244796E-17,0.1131817401433
330,GRAV,4698708.207387,0.9745092725383,1.181983184161E-17,0.2243472258284
331,GRAV,3689485.909026,0.9991166849146,1.588877666385E-17,0.04202201714807
332,GRAV,4081760.424352,0.9918544468609,1.405522427689E-17,0.127376435192
333,GRAV,2729096.805842,0.9999769210079,1.661255379992E-17,0.0067939275547
334,GRAV,3201918.287332,0.995993106245,1.488744322879E-17,0.08943004144285
335,GRAV,2056606.106763,0.9550146845881,1.00549010904E-17,0.2965585139919
336,GRAV,2507328.171409,0.9816135956832,1.261582437958E-17,0.1908788850815
337,GRAV,2194013.447169,0.6834686336242,-3.180015820754E-18,0.7299798811282
338,GRAV,2373860.544276,0.8262885882345,2.551816574856E-18,0.5632469875227
339,GRAV,2768379.524451,0.5407294068938,-7.801788585817E-18,0.8411965932648
340,GRAV,3862916.407548,0.5497118352549,-7.537699303035E-18,0.8353543548583
341,GRAV,3431917.297796,0.6193012442921,-5.365501488654E-18,0.7851534683222
342,GRAV,4525582.757939,0.6080846267855,-5.730344420847E-18,0.7938722105397
343,GRAV,5259736.234532,0.7051932352468,-2.404873028482E-18,0.7090151627166
344,GRAV,4747416.684864,0.6843881436045,-3.155422836328E-18,0.7291178703705
345,GRAV,5148159.995506,0.7724967394933,2.051719125568E-19,0.6350187300168
346,GRAV,4211091.985383,0.8039658259118,1.542078663581E-18,0.5946755003916
347,GRAV,4357790.327768,0.8830677088748,5.380309022075E-18,0.4692455876646
348,GRAV,3611365.019127,0.7632660302484,-1.684373249705E-19,0.6460843343317
349,GRAV,3296164.522023,0.9261037082337,7.946943918861E-18,0.3772690307933
350,GRAV,3099622.513278,0.835566363717,2.981656975488E-18,0.5493895264971
351,GRAV,3944114.471491,0.9334749327125,8.442087218533E-18,0.35864264944
352,GRAV,4623493.404581,0.760654722148,-2.75733362124E-19,0.6491566788333
353,GRAV,4860568.78776,0.8938074137454,5.976157997333E-18,0.4484510086216
354,GRAV,3015129.500077,0.9688745182334,1.126423295757E-17,0.247552353893
355,GRAV,4181182.39982,0.9678153345058,1.116108048006E-17,0.2516614358528
356,GRAV,5600425.75703,0.9054459459723,6.650985975511E-18,0.4244615870987
357,GRAV,5464757.715899,0.8187142839699,2.197590331323E-18,0.5742011156587
358,GRAV,5312315.977862,0.8675930256636,4.558030642675E-18,0.4972749157356
359,GRAV,5140941.585007,0.9611507800264,1.055965732781E-17,0.2760238722548
360,GRAV,5173895.684288,0.928964790887,8.133558107206E-18,0.3701680932932
361,GRAV,4610459.924932,0.993574302052,1.436765244796E-17,0.1131817401433
362,GRAV,4698708.207387,0.9745092725383,1.181983184161E-17,0.2243472258284
363,GRAV,3689485.909026,0.9991166849146,1.588877666385E-17,0.04202201714807
364,GRAV,4081760.424352,0.9918544468609,1.405522427689E-17,0.127376435192
365,GRAV,2729096.805842,0.9999769210079,1.661255379992E-17,0.0067939275547
366,GRAV,3201918.287332,0.995993106245,1.488744322879E-17,0.08943004144285
367,GRAV,2056606.106763,0.9550146845881,1.00549010904E-17,0.2965585139919
368,GRAV,2507328.171409,0.9816135956832,1.261582437958E-17,0.1908788850815
369,GRAV,2194013.447169,0.6834686336242,-3.180015820754E-18,0.7299798811282
370,GRAV,2373860.544276,0.8262885882345,2.551816574856E-18,0.5632469875227
371,GRAV,2768379.524451,0.5407294068938,-7.801788585817E-18,0.8411965932648
372,GRAV,3862916.407548,0.5497118352549,-7.537699303035E-18,0.8353543548583
373,GRAV,3431917.297796,0.6193012442921,-5.365501488654E-18,0.7851534683222
374,GRAV,4525582.757939,0.6080846267855,-5.730344420847E-18,0.7938722105397
375,GRAV,5259736.234532,0.7051932352468,-2.404873028482E-18,0.7090151627166
376,GRAV,4747416.684864,0.6843881436045,-3.155422836328E-18,0.7291178703705
377,GRAV,5148159.995506,0.7724967394933,2.051719125568E-19,0.6350187300168
378,GRAV,4211091.985383,0.8039658259118,1.542078663581E-18,0.5946755003916
379,GRAV,4357790.327768,0.8830677088748,5.380309022075E-18,0.4692455876646
380,GRAV,3611365.019127,0.7632660302484,-1.684373249705E-19,0.6460843343317
381,GRAV,3296164.522023,0.9261037082337,7.946943918861E-18,0.3772690307933
382,GRAV,3099622.513278,0.835566363717,2.981656975488E-18,0.5493895264971
383,GRAV,3944114.471491,0.9334749327125,8.442087218533E-18,0.35864264944
384,GRAV,4623493.404581,0.760654722148,-2.75733362124E-19,0.6491566788333
385,GRAV,4860568.78776,0.8938074137454,5.976157997333E-18,0.4484510086216
386,GRAV,3015129.500077,0.9688745182334,1.126423295757E-17,0.247552353893
387,GRAV,4181182.39982,0.9678153345058,1.116108048006E-17,0.2516614358528
388,GRAV,15468311.89137,0.9051776095523,6.631275328971E-18,0.4250335224016
389,GRAV,15279042.73836,0.9070916526989,6.745539135073E-18,0.4209331699974
390,GRAV,14328918.89307,0.8817290054085,5.302308428255E-18,0.4717562517035
391,GRAV,14152796.49121,0.8687199770131,4.612538939974E-18,0.4953035448474
392,GRAV,14330803.87759,0.8459340717073,3.469656429098E-18,0.5332874893758
393,GRAV,14836232.94608,0.8898659399244,5.749839524651E-18,0.4562221048595
394,GRAV,15233875.79548,0.8384834016791,3.111471531647E-18,0.5449271374308
395,GRAV,15755864.57576,0.851816987709,3.757320134458E-18,0.5238394977953
396,GRAV,14192216.09574,0.8803379402378,5.227109387237E-18,0.4743470364384
397,GRAV,15691826.10637,0.8479601345039,3.568070411818E-18,0.5300600063126
398,GRAV,14125264.1046,0.8764105754202,5.01669266532E-18,0.4815646408237
399,GRAV,14945938.72856,0.892427694169,5.893571994083E-18,0.4511904372658
400,GRAV,14198887.86362,0.8474731825931,3.544540009861E-18,0.5308382096134
401,GRAV,14062129.95785,0.8650333792114,4.422331014513E-18,0.5017143139777
402,GRAV,15483825.43165,0.8399822485202,3.182898028365E-18,0.5426138794492
403,GRAV,15073485.48031,0.8920596264696,5.872812802695E-18,0.4519177168722
404,GRAV,14135764.82654,0.8516249091926,3.748085938628E-18,0.5241517089952
405,GRAV,14067245.23228,0.8604305101355,4.187848726786E-18,0.5095677945357
406,GRAV,15373691.15071,0.8376646514205,3.072533588149E-18,0.546184887891
407,GRAV,15554417.52956,0.8461950251239,3.482146130595E-18,0.5328733240232
408,GRAV,15652619.39108,0.8642745711847,4.383210020763E-18,0.5030203431309
409,GRAV,15637216.26216,0.8586224387588,4.096392435099E-18,0.5126085325664
410,GRAV,15638604.58845,0.862180655297,4.276383661102E-18,0.5066009451547
411,GRAV,14917421.54662,0.8237434392266,2.423054258089E-18,0.5669627380446
412,GRAV,16067629.79022,0.8611301862733,4.2229897059E-18,0.5083845024083
413,GRAV,14665996.13645,0.8853979535144,5.502441029671E-18,0.4648338024634
414,GRAV,14665996.13645,0.8853979535144,5.502441029671E-18,0.4648338024634
415,GRAV,14546150.45063,0.8437332946703,3.363119718731E-18,0.5367626360551
416,GRAV,14546150.45063,0.8437332946703,3.363119718731E-18,0.5367626360551
417,GRAV,15891989.31859,0.8438092118194,3.366591221046E-18,0.536643283801
418,GRAV,15475921.7279,0.8299016081491,2.707533729771E-18,0.5579097783616
419,GRAV,15727474.78492,0.8600059917604,4.166139409848E-18,0.5102839348207
420,GRAV,15618558.01318,0.8562112876308,3.975502788743E-18,0.5166258132669
421,GRAV,14895219.34583,0.887006129714,5.590991904491E-18,0.4617576483933
422,GRAV,14895219.34583,0.887006129714,5.590991904491E-18,0.4617576483933
423,GRAV,15022318.89734,0.839909806322,3.17950308478E-18,0.5427260056826
424,GRAV,15022318.89734,0.839909806322,3.17950308478E-18,0.5427260056826
425,GRAV,15621439.21434,0.872165079648,4.792107693011E-18,0.4892116861264
426,GRAV,15377653.71862,0.8858538227592,5.527395467199E-18,0.4639644433606
427,GRAV,15377653.71862,0.8858538227592,5.527395467199E-18,0.4639644433606
428,GRAV,15617397.87925,0.8560470052707,3.967297010217E-18,0.5168979829396
429,GRAV,15343095.06271,0.889675472955,5.739134304333E-18,0.4565934217904
430,GRAV,15243060.12385,0.8422796660488,3.293015471122E-18,0.5390407815376
431,GRAV,14667241.88046,0.8192538127108,2.218274690647E-18,0.5734310685329
432,GRAV,15243060.12385,0.8422796660488,3.293015471122E-18,0.5390407815376
433,GRAV,15243645.51989,0.8846407018201,5.460822514917E-18,0.4662733411673
434,GRAV,15243645.51989,0.8846407018201,5.460822514917E-18,0.4662733411673
435,GRAV,16162812.81116,0.8537825584928,3.854512769729E-18,0.5206297559816
436,GRAV,15855449.71079,0.8344972655918,2.92268239565E-18,0.5510120812829
437,GRAV,15314302.0283,0.8218131390588,2.334669183276E-18,0.5697571100656
438,GRAV,15586541.11897,0.8755880553372,4.972758298097E-18,0.4830585444342
439,GRAV,14353271.37701,0.8955237052358,6.06930726221E-18,0.4450138125505
440,GRAV,14011472.13483,0.8857144097261,5.519936673731E-18,0.4642305293748
441,GRAV,14470823.53535,0.8269458420661,2.570566947519E-18,0.5622815791839
442,GRAV,15731289.75655,0.8611526356566,4.224171657086E-18,0.5083464744656
443,GRAV,14526083.85742,0.8865928636475,5.568233745211E-18,0.4625506395296
444,GRAV,14526083.85742,0.8865928636475,5.568233745211E-18,0.4625506395296
445,GRAV,14595840.96346,0.838683220231,3.121076799477E-18,0.5446195517082
446,GRAV,14595840.96346,0.838683220231,3.121076799477E-18,0.5446195517082
447,GRAV,13943194.64866,0.881845777661,5.30870317776E-18,0.4715379352941
448,GRAV,14352138.38132,0.8293844612687,2.683638461556E-18,0.5586782754019
449,GRAV,14475535.6629,0.8972274891759,6.166872133569E-18,0.4415686047117
450,GRAV,15955126.67156,0.8476822143429,3.554476229561E-18,0.530504348226
451,GRAV,15046923.65937,0.8243841025944,2.452441398839E-18,0.5660307866093
452,GRAV,13823211.40536,0.8665071765287,4.498153731195E-18,0.4991646151564
453,GRAV,14018058.33371,0.8413427272223,3.248228890064E-18,0.5405020030953
454,GRAV,15585123.91654,0.8323086336697,2.819922081885E-18,0.5543124915775
455,GRAV,13953666.1123,0.8455974282022,3.453386151304E-18,0.5338211211799
456,GRAV,13827959.75153,0.8618471050419,4.259705163398E-18,0.5071681846595
457,GRAV,14922207.40379,0.8361752968229,3.002014911721E-18,0.548462280365
458,GRAV,14922207.40379,0.8361752968229,3.002014911721E-18,0.548462280365
459,GRAV,15509078.69738,0.8496625002166,3.651380254431E-18,0.5273268774922
460,GRAV,15820294.43137,0.8589891859071,4.11483161554E-18,0.5119937289603
461,GRAV,15387638.75781,0.8939289754167,5.978413385748E-18,0.4482086421639
462,GRAV,15004400.12753,0.8896098485078,5.735521405208E-18,0.4567212688696
463,GRAV,15004400.12753,0.8896098485078,5.735521405208E-18,0.4567212688696
464,GRAV,14351420.21072,0.9003108305635,6.345219955543E-18,0.4352475254036
465,GRAV,14349458.31582,0.8230951528437,2.393431604416E-18,0.5679034859597
466,GRAV,15650777.81323,0.8607446532895,4.203511174276E-18,0.5090369749179
467,GRAV,14995059.57037,0.8185754618646,2.187467298033E-18,0.574399001769
468,GRAV,15382711.9336,0.8414358461368,3.252485297204E-18,0.5403570271923
469,GRAV,15382711.9336,0.8414358461368,3.252485297204E-18,0.5403570271923
470,GRAV,16052721.25036,0.8435555656165,3.354333794579E-18,0.537041904992
471,GRAV,15383964.45847,0.8853623983831,5.500383505997E-18,0.4649015202485
472,GRAV,16212638.12267,0.8632710709819,4.331855049365E-18,0.504740584861
473,GRAV,15383964.45847,0.8853623983831,5.500383505997E-18,0.4649015202485
474,GRAV,15646822.50914,0.8513840313482,3.735987246559E-18,0.5245428782905
475,GRAV,13862316.97312,0.840409679836,3.203577366327E-18,0.541951630718
476,GRAV,15613024.02248,0.8267601296894,2.561818505642E-18,0.5625546088656
477,GRAV,14076773.53356,0.8944963466528,6.010830503539E-18,0.4470752574508
478,GRAV,13730104.61687,0.8757932989801,4.983941219855E-18,0.4826863344466
479,GRAV,14672670.01583,0.9030042294422,6.502833564641E-18,0.4296316580624
480,GRAV,14078430.24159,0.8307977171225,2.749512738393E-18,0.5565744812907
481,GRAV,13739616.20627,0.8521419587272,3.773667324833E-18,0.5233106937341
482,GRAV,15693206.73927,0.8755639335419,4.971463714234E-18,0.4831022648267
483,GRAV,15518033.65794,0.8865548324958,5.565990966646E-18,0.4626235283449
484,GRAV,15518033.65794,0.8865548324958,5.565990966646E-18,0.4626235283449
485,GRAV,15542062.78852,0.8780813103709,5.105652052545E-18,0.4785114548026
486,GRAV,15651525.1857,0.8765037035945,5.021422424823E-18,0.4813951158718
487,GRAV,15509078.69738,0.8496625002166,3.651380254431E-18,0.5273268774922
488,GRAV,15915639.71176,0.8955473612932,6.07043223765E-18,0.4449662050997
489,GRAV,15509749.86952,0.8781109658679,5.10724385553E-18,0.4784570321591
490,GRAV,15646822.50914,0.8513840313482,3.735987246559E-18,0.5245428782905
491,GRAV,13646617.79798,0.8470190070468,3.522510048483E-18,0.5315626037462
492,GRAV,14547218.8475,0.8153157100823,2.040403606502E-18,0.5790166602897
493,GRAV,14745951.45901,0.8139626357907,1.979624859758E-18,0.5809172295058
494,GRAV,14074579.48248,0.8993992891987,6.292309021642E-18,0.4371280345492
495,GRAV,15452637.60582,0.818645229453,2.190563427718E-18,0.5742995632019
496,GRAV,15263118.69712,0.8160611225861,2.073844380811E-18,0.5779656081495
497,GRAV,15731126.87775,0.8708224496088,4.721788367193E-18,0.4915976619729
498,GRAV,13923182.3892,0.8297213469432,2.69938043423E-18,0.5581778268857
499,GRAV,16258962.90356,0.8497474902471,3.655450573278E-18,0.5271899115298
500,GRAV,14075361.45675,0.8244091469536,2.453743007994E-18,0.565994309529
501,GRAV,14549910.61691,0.9060106251487,6.681008154256E-18,0.4232549434061
502,GRAV,16306835.86367,0.8560280015347,3.966258814953E-18,0.51692945417
503,GRAV,16016286.87911,0.8343310095605,2.914832742279E-18,0.5512637902908
504,GRAV,15882723.23902,0.8290720554244,2.668896378511E-18,0.5591417771142
505,GRAV,16307340.95384,0.8712865760581,4.745982942938E-18,0.4907745942701
506,GRAV,15619293.54766,0.892927057632,5.921663268018E-18,0.4502013657784
507,GRAV,16167222.30774,0.8733592890136,4.854828527745E-18,0.4870765363818
508,GRAV,15745172.33111,0.8632423901397,4.330452020902E-18,0.5047896352599
509,GRAV,15523972.49496,0.8964674620551,6.123105250308E-18,0.443109568252
510,GRAV,13856643.68707,0.8863794532644,5.556575565037E-18,0.4629594634854
511,GRAV,13678875.55694,0.8642021465286,4.379807351467E-18,0.5031447604173
512,GRAV,14447964.10442,0.8812863492992,5.278313267241E-18,0.4725826600066
513,GRAV,14775294.78836,0.8398128012109,3.17490717556E-18,0.5428760990524
514,GRAV,14775294.78836,0.8398128012109,3.17490717556E-18,0.5428760990524
515,GRAV,14447964.10442,0.8812863492992,5.278313267241E-18,0.4725826600066
516,GRAV,15652784.86553,0.8665399342419,4.499563445344E-18,0.4991077462472
517,GRAV,15447486.28147,0.8472004898456,3.531065657584E-18,0.5312733100818
518,GRAV,14258490.79659,0.8705800914525,4.709346566034E-18,0.4920267313536
519,GRAV,14258490.79659,0.8705800914525,4.709346566034E-18,0.4920267313536
520,GRAV,14778124.80971,0.8866772812929,5.572852519471E-18,0.4623887961868
521,GRAV,14448909.83128,0.8462801574895,3.486443773062E-18,0.5327381111199
522,GRAV,14448909.83128,0.8462801574895,3.486443773062E-18,0.5327381111199
523,GRAV,14778124.80971,0.8866772812929,5.572852519471E-18,0.4623887961868
524,GRAV,15637879.042,0.8687617579666,4.614486347587E-18,0.4952302574507
525,GRAV,16049224.6771,0.8913018865944,5.830073907461E-18,0.4534103516168
526,GRAV,15447486.28147,0.8472004898456,3.531065657584E-18,0.5312733100818
527,GRAV,15448156.51846,0.8803268510338,5.226322443781E-18,0.4743676162524
528,GRAV,15448156.51846,0.8803268510338,5.226322443781E-18,0.4743676162524
529,GRAV,15581793.73621,0.8815821384507,5.294164415217E-18,0.4720306485437
530,GRAV,14263237.79242,0.8577198656272,4.051241278642E-18,0.514117333017
531,GRAV,14263237.79242,0.8577198656272,4.051241278642E-18,0.514117333017
532,GRAV,13589345.42377,0.8544804508225,3.889558124863E-18,0.5194835504249
533,GRAV,13922361.42512,0.8952291642193,6.052575853255E-18,0.4456060407257
534,GRAV,15140306.50099,0.8860313093517,5.537196489469E-18,0.4636254078979
535,GRAV,15140306.50099,0.8860313093517,5.537196489469E-18,0.4636254078979
536,GRAV,14748635.68957,0.9069966996115,6.739926554899E-18,0.4211377291266
537,GRAV,13641854.50296,0.8804690405207,5.23427663907E-18,0.4741036476178
538,GRAV,13584593.22522,0.8736467227228,4.870366231804E-18,0.486560791552
539,GRAV,16259094.65767,0.8771246438896,5.054436567674E-18,0.4802628021006
540,GRAV,15634680.49462,0.8701209609369,4.685190252957E-18,0.4928382222781
541,GRAV,15139722.75195,0.8406635005589,3.215519826979E-18,0.5415578259318
542,GRAV,15139722.75195,0.8406635005589,3.215519826979E-18,0.5415578259318
543,GRAV,15729499.95607,0.8795718781355,5.185613599899E-18,0.4757660256819
544,GRAV,16071425.41006,0.8653450230142,4.438033749828E-18,0.5011766067411
545,GRAV,15793144.25014,0.8751314912593,4.948516978427E-18,0.4838851857686
546,GRAV,16167222.30774,0.8733592890136,4.854828527745E-18,0.4870765363818
547,GRAV,15992144.53675,0.8789035937795,5.14966701136E-18,0.4769994474226
548,GRAV,15992144.53675,0.8789035937795,5.14966701136E-18,0.4769994474226
549,GRAV,15588063.16571,0.8811798694036,5.272384592612E-18,0.472781173227
550,GRAV,15723185.50837,0.8799724069513,5.207177814455E-18,0.4750248025149
551,GRAV,15619293.54766,0.892927057632,5.921663268018E-18,0.4502013657784
552,GRAV,15630634.39937,0.8581919902962,4.074748299272E-18,0.5133288495608
553,GRAV,15523972.49496,0.8964674620551,6.123105250308E-18,0.443109568252
554,GRAV,15660801.1218,0.898933342477,6.265079844334E-18,0.43808543206
555,GRAV,15639073.84051,0.8686047439438,4.606338310497E-18,0.4955055991595
556,GRAV,15635861.65189,0.8699645699174,4.677039226703E-18,0.4931142333055
557,GRAV,15837692.65257,0.8653613662245,4.438903281724E-18,0.5011483870532
558,GRAV,15837692.65257,0.8653613662245,4.438903281724E-18,0.5011483870532
559,GRAV,16085463.64805,0.8825988760898,5.349282530205E-18,0.4701268168537
560,GRAV,15330232.48744,0.9028101510045,6.491315975984E-18,0.4300393368557
561,GRAV,15889053.41896,0.8911584986895,5.822046161908E-18,0.45369210949
562,GRAV,15631815.19677,0.8583548397062,4.082933757585E-18,0.5130564970381
563,GRAV,16071425.41006,0.8653450230142,4.438033749828E-18,0.5011766067411
564,GRAV,15330232.48744,0.9028101510045,6.491315975984E-18,0.4300393368557
565,GRAV,15889053.41896,0.8911584986895,5.822046161908E-18,0.45369210949
566,GRAV,15929641.16575,0.8832403127223,5.384219562553E-18,0.4689206222617
567,GRAV,15929641.16575,0.8832403127223,5.384219562553E-18,0.4689206222617
568,GRAV,15013441.61197,0.9051844483948,6.631746321231E-18,0.4250189576762
569,GRAV,15065337.70259,0.9007917054149,6.373128860293E-18,0.434251428847
570,GRAV,14938058.04519,0.901218418793,6.398056937468E-18,0.4333651596845
571,GRAV,14991374.23302,0.8967323622306,6.138366423334E-18,0.4425732374741
572,GRAV,15065337.70259,0.9007917054149,6.373128860293E-18,0.434251428847
573,GRAV,15118797.75045,0.8963363915026,6.115654323302E-18,0.4433746421123
574,GRAV,14861004.73024,0.8326175396888,2.834499495803E-18,0.5538483841293
575,GRAV,15090308.94283,0.8369385625325,3.038129135098E-18,0.5472968504806
576,GRAV,14990757.90325,0.8331699974706,2.860394878026E-18,0.5530169575292
577,GRAV,14613159.88315,0.8344581165454,2.921015299186E-18,0.5510713671854
578,GRAV,14495333.82705,0.8368846984288,3.035666097481E-18,0.5473792118228
579,GRAV,14445198.9393,0.8419896238779,3.27920013298E-18,0.5394937194092
580,GRAV,14424574.10943,0.8882419723792,5.659497061297E-18,0.4593758793232
581,GRAV,14545933.81004,0.890053954477,5.760386316206E-18,0.4558551942446
582,GRAV,14685559.94792,0.8888450039494,5.692962810665E-18,0.4582079865674
583,GRAV,14236005.40892,0.8768029326866,5.037570407504E-18,0.4808498905399
584,GRAV,14372395.40366,0.878242495896,5.114454406472E-18,0.4782155564203
585,GRAV,14236005.40892,0.8768029326866,5.037570407504E-18,0.4808498905399
586,GRAV,14372395.40366,0.878242495896,5.114454406472E-18,0.4782155564203
587,GRAV,14241906.7824,0.8664724185962,4.496292396437E-18,0.499224947105
588,GRAV,14151711.79071,0.8627658865275,4.306393925709E-18,0.5056036244376
589,GRAV,14151711.79071,0.8627658865275,4.306393925709E-18,0.5056036244376
590,GRAV,14241906.7824,0.8664724185962,4.496292396437E-18,0.499224947105
591,GRAV,14241746.82841,0.8512258096915,3.728400205607E-18,0.5247996007191
592,GRAV,14373367.33544,0.8496743162796,3.652127595299E-18,0.5273078382262
593,GRAV,14373367.33544,0.8496743162796,3.652127595299E-18,0.5273078382262
594,GRAV,14241746.82841,0.8512258096915,3.728400205607E-18,0.5247996007191
595,GRAV,15741211.25276,0.8621052657594,4.272536367158E-18,0.5067292282373
596,GRAV,15652619.39108,0.8642745711847,4.383210020763E-18,0.5030203431309
597,GRAV,15695925.08012,0.8742354352453,4.901115044484E-18,0.4855022180809
598,GRAV,15802592.46093,0.8742205130506,4.900312459172E-18,0.4855290872456
599,GRAV,15745739.77851,0.8686279918169,4.607530174447E-18,0.495464844194
600,GRAV,15652784.86553,0.8665399342419,4.499563445344E-18,0.4991077462472
601,GRAV,15651569.4952,0.8666977922491,4.507702118481E-18,0.4988335763665
602,GRAV,15744545.20726,0.8687839313272,4.615623034145E-18,0.4951913576262
603,GRAV,11439632.5339,0.8555443477357,3.942984042181E-18,0.5177295327267
604,GRAV,6296594.009101,0.8563509112259,3.985603641398E-18,0.5163943423804
605,GRAV,6296594.009101,0.8563509112259,3.985603641398E-18,0.5163943423804
606,GRAV,6302616.339148,0.839985088982,3.186133905036E-18,0.5426094823056
607,GRAV,8871719.679845,0.8471988581727,3.532567314956E-18,0.5312759120371
608,GRAV,11441705.11338,0.8768001388149,5.037986817926E-18,0.4808549849738
609,GRAV,8866907.519592,0.8642354927176,4.382821122961E-18,0.5030874805908
610,GRAV,11438388.82752,0.8684875563011,4.601033583217E-18,0.4957109687612
611,GRAV,8871719.707653,0.8803345746622,5.228320292393E-18,0.4743532825377
612,GRAV,6298853.082108,0.8793790474858,5.178379331861E-18,0.4761223486069
613,GRAV,11438388.82752,0.8684875563011,4.601033583217E-18,0.4957109687612
614,GRAV,8866907.519592,0.8642354927176,4.382821122961E-18,0.5030874805908
615,GRAV,2337338.678237,0.8070829821596,1.68547477504E-18,0.5904380237657
616,GRAV,2205210.31554,0.6983281282592,-2.646670566134E-18,0.7157777764655
617,GRAV,2338919.856116,0.9563250928043,1.016016839835E-17,0.292305177636
618,GRAV,2203296.566566,0.9824708398431,1.272144882515E-17,0.1864163320582
619,GRAV,5322301.75239,0.9189930995628,7.483227431939E-18,0.3942736143289
620,GRAV,2219464.995562,0.9175339464042,7.399623301586E-18,0.3976574621404
621,GRAV,2361065.964811,0.6208724905192,-5.309951622665E-18,0.7839115705974
622,GRAV,1921968.834383,0.9845363784592,1.298346480516E-17,0.1751802485742
623,GRAV,2592374.492152,0.9845067020611,1.297519227294E-17,0.1753469520601
624,GRAV,4229900.205251,0.9724556137749,1.161100320412E-17,0.2330881362012
625,GRAV,2970461.077825,0.9753540025591,1.19122548528E-17,0.2206458014373
626,GRAV,5093708.447472,0.762892931763,-1.861684436847E-19,0.6465248445853
627,GRAV,4156430.821308,0.9899876158078,1.374762290047E-17,0.1411542438159
628,GRAV,2593668.451436,0.6702272595222,-3.648051563974E-18,0.7421559274124
629,GRAV,1940482.750921,0.909056307243,6.878646610749E-18,0.4166732895947
630,GRAV,3396662.035849,0.9109570326809,6.986818063007E-18,0.4125012540699
631,GRAV,3880182.571963,0.9190468376496,7.488939489403E-18,0.3941483352829
632,GRAV,3134437.09922,0.9237080356444,7.790522792385E-18,0.3830972003107
633,GRAV,4106300.468906,0.9349090430617,8.541043105557E-18,0.3548874204611
634,GRAV,4198992.733286,0.879005681581,5.160934788938E-18,0.4768112957433
635,GRAV,3851012.145502,0.9452343620194,9.285645423847E-18,0.3263924031863
636,GRAV,4470094.060491,0.8701935239532,4.694237614463E-18,0.4927100880537
637,GRAV,3363300.572179,0.9420069920666,9.04841533776E-18,0.3355932462037
638,GRAV,4408789.711855,0.8990871981169,6.279356990264E-18,0.437769585721
639,GRAV,5507751.480735,0.9041936654828,6.57677638993E-18,0.4271227169103
640,GRAV,4552207.880855,0.9916192016725,1.401399407196E-17,0.1291950419884
641,GRAV,3113614.47955,0.9950191076671,1.466585905838E-17,0.09968437880352
642,GRAV,2755242.570074,0.9992096126258,1.593888671944E-17,0.0397511010679
643,GRAV,5178496.035142,0.711615756133,-2.168048295855E-18,0.7025688689539
644,GRAV,5289354.938461,0.8760251817402,5.000091616205E-18,0.4822653636299
645,GRAV,4619386.881891,0.9768897953966,1.207237171849E-17,0.2137436025941
646,GRAV,1774667.003561,0.9533703844954,9.924791508663E-18,0.3018027666658
647,GRAV,5444727.802967,0.9301459516153,8.21271354626E-18,0.3671900171486
648,GRAV,4280148.596797,0.9608726631607,1.05369134886E-17,0.2769904785195
649,GRAV,2530706.310224,0.9688135885982,1.126052695214E-17,0.2477906990738
650,GRAV,5062601.604513,0.7874175931921,8.27871402508E-19,0.6164199331069
651,GRAV,4035872.02653,0.9697456514415,1.134490865384E-17,0.2441175362614
652,GRAV,2916797.547984,0.9588679556992,1.03693924679E-17,0.28385250313
653,GRAV,3161455.795323,0.9709993814269,1.146910084845E-17,0.2390819969561
654,GRAV,3958803.410181,0.988984241093,1.359356669445E-17,0.1480208460646
655,GRAV,2434983.966986,0.8529758438588,3.826029390193E-18,0.521950390165
656,GRAV,2056768.472289,0.9550619734136,1.005874510756E-17,0.2964061857304
657,GRAV,5304401.113619,0.8218148042512,2.338805737015E-18,0.5697547081978
658,GRAV,3656842.220592,0.9963460257185,1.497269349804E-17,0.08540841313875
659,GRAV,5164238.972697,0.9279131264932,8.0632751898E-18,0.37279649902
660,GRAV,4701140.360594,0.7532030229922,-5.736096941661E-19,0.6577881164595
661,GRAV,3974505.402736,0.534158519477,-7.999332074531E-18,0.8453843363052
662,GRAV,5290367.213532,0.7671442316179,-1.401071346216E-20,0.6414746510154
663,GRAV,2405896.034983,0.9891073875223,1.36175425071E-17,0.1471957062852
664,GRAV,3296325.053475,0.9922038536755,1.411814560741E-17,0.1246254899751
665,GRAV,5460784.026384,0.866689023318,4.511178917845E-18,0.4988488116254
666,GRAV,5188236.433318,0.8597093134133,4.155412778781E-18,0.510783610182
667,GRAV,4665442.25437,0.9670936302567,1.109286609383E-17,0.2544207348407
668,GRAV,4133690.223339,0.9956061620671,1.479425636479E-17,0.09363957525579
669,GRAV,4363365.706203,0.8119556634928,1.895180601152E-18,0.5837191109789
670,GRAV,2980254.235027,0.8550670945994,3.927378372081E-18,0.5185173707152
671,GRAV,4085187.798696,0.8185550404031,2.192410846265E-18,0.5744281032738
672,GRAV,3254924.325113,0.8440213931064,3.384884233461E-18,0.536309507634
673,GRAV,2056768.472289,0.9550619734136,1.005874510756E-17,0.2964061857304
674,GRAV,3845486.373448,0.9995649735976,1.614708424883E-17,0.02949344938955
675,GRAV,5522202.587931,0.8024567032054,1.474168815165E-18,0.596710348059
676,GRAV,5571268.802432,0.8313477449337,2.778769810851E-18,0.5557525771363
677,GRAV,4792877.645855,0.6968795322034,-2.707259056681E-18,0.7171882023541
678,GRAV,4667417.91017,0.780161665587,5.233838553694E-19,0.6255779532149
679,GRAV,5672584.322099,0.8954062495413,6.066117740699E-18,0.4452500963307
680,GRAV,5624402.075335,0.9162408501825,7.309442791967E-18,0.4006278877672
681,GRAV,4531453.881563,0.9963180211116,1.496394874193E-17,0.08573447852696
682,GRAV,5372051.813986,0.7180905965203,-1.92720843124E-18,0.6959496355262
683,GRAV,2580560.373937,0.9999937870987,1.66790646282E-17,0.003525019713718
684,GRAV,3201502.797235,0.9990724679369,1.586857960205E-17,0.04306046691039
685,GRAV,5231810.956284,0.6851684821858,-3.128304999121E-18,0.7283846175059
686,GRAV,4814729.67579,0.9787159562468,1.227353244847E-17,0.2052195823695
687,GRAV,3571604.167436,0.9999392221134,1.652425069595E-17,0.01102506595659
688,GRAV,5141196.847542,0.9694176044203,1.131161149395E-17,0.2454170088643
689,GRAV,3923054.177945,0.5922296986921,-6.233096136116E-18,0.8057691877871
690,GRAV,3699403.494539,0.5201129022537,-8.408475744171E-18,0.8540975172129
691,GRAV,4850433.055352,0.6679055035093,-3.734724729215E-18,0.7442460872467
692,GRAV,4750314.018764,0.9922875790619,1.412988685552E-17,0.1239570911222
693,GRAV,2854187.564507,0.9997563917302,1.718701695849E-17,-0.02207163778498
694,GRAV,4189494.656426,0.7805026251517,5.384251340763E-19,0.6251525030993
695,GRAV,3070216.521954,0.8058968564603,1.629821601628E-18,0.5920559574461
696,GRAV,3629084.670358,0.7914102236318,1.000201854003E-18,0.6112854144596
697,GRAV,3610028.248989,0.6439766872075,-4.549857784625E-18,0.7650451139202
698,GRAV,3365640.51717,0.5721146738879,-6.857145237899E-18,0.8201736401044
699,GRAV,3328752.461087,0.6386373345374,-4.727918737903E-18,0.7695078654146
700,GRAV,4465334.175274,0.5809981169681,-6.58520092577E-18,0.8139049011276
701,GRAV,4687282.626043,0.6116074853269,-5.617287252581E-18,0.791161351364
702,GRAV,5164238.972697,0.9279131264932,8.0632751898E-18,0.37279649902
703,GRAV,4600940.183969,0.6884544647689,-3.010195050497E-18,0.7252795667464
704,GRAV,4505296.343009,0.7476517313613,-7.925750866809E-19,0.6640910243275
705,GRAV,4428607.926698,0.6310524810286,-4.982267204485E-18,0.7757401408897
706,GRAV,2706901.475302,0.7701843587647,1.160568160102E-19,0.6378213335365
707,GRAV,3746112.874732,0.7469222946281,-8.197466824558E-19,0.6649113367867
708,GRAV,3464383.447902,0.750248010935,-6.880934631661E-19,0.6611565034756
709,GRAV,2609209.697848,0.5297023009958,-8.125696741079E-18,0.8481836312496
710,GRAV,1967197.234554,0.6443349844853,-4.530188878936E-18,0.7647433737982
711,GRAV,2880116.268499,0.5049093041558,-8.842334570637E-18,0.8631724014222
712,GRAV,2822840.518275,0.5861226528678,-6.421311023727E-18,0.8102223372601
713,GRAV,5133663.298643,0.9531409961114,9.894295213043E-18,0.3025264311293
714,GRAV,5415735.91907,0.9538004474042,9.94680885599E-18,0.3004408536327
715,GRAV,4851618.096287,0.9523994811632,9.83561967445E-18,0.304852797724
716,GRAV,5133663.298643,0.9531409961114,9.894295213043E-18,0.3025264311293
717,GRAV,5092117.446423,0.8924956569393,5.901671391826E-18,0.4510559858206
718,GRAV,4926675.178231,0.9023325247982,6.467787749916E-18,0.4310406183776
719,GRAV,4985036.523211,0.8769162965734,5.047908562279E-18,0.4806431200007
720,GRAV,4815917.084147,0.8871137601511,5.601569459282E-18,0.461550838533
721,GRAV,4926675.178231,0.9023325247982,6.467787749916E-18,0.4310406183776
722,GRAV,4763852.907077,0.9123509655082,7.06935657559E-18,0.4094089834582
723,GRAV,2205210.31554,0.6983281282592,-2.646670566134E-18,0.7157777764655
724,GRAV,2337338.678237,0.8070829821596,1.68547477504E-18,0.5904380237657
725,GRAV,1821422.78861,0.7365524875451,-1.213937934499E-18,0.6763803908239
726,GRAV,1979338.408633,0.8528300957227,3.821931796158E-18,0.5221884983697

***********************************************************
** MbDAssembly gravity
*DLOAD
Eall,GRAV,9810,0.9601538990421,0,-0.2794718056519

***********************************************************
** Outputs --> frd file
*NODE FILE
U
*EL FILE
S, E
*OUTPUT, FREQUENCY=1
***********************************************************
*END STEP

***********************************************************
** CalculiX Input file
**   written by    --> FreeCAD 26.3.0
**   written on    --> Sat Sep  5 14:27:29 2026
**   file name     --> RealisticPendulum.FCStd
**   analysis name --> FEMPart002
**
**
***********************************************************
**  About units:
**  See ccx manual, ccx does not know about any unit.
**  Golden rule: The user must make sure that the numbers they provide have consistent units.
**  The user is the FreeCAD calculix writer module ;-)
**
**  The unit system which is used at Guido Dhondt's company: mm, N, s, K
**  Since Length and Mass are connected by Force, if Length is mm the Mass is in t to get N
**  The following units are used to write to inp file:
**
**  Length: mm (this includes the mesh geometry)
**  Mass: t
**  TimeSpan: s
**  Temperature: K
**
**  This leads to:
**  Force: N
**  Pressure: N/mm^2 == MPa (Young's Modulus has unit Pressure)
**  Density: t/mm^3
**  Gravity: mm/s^2
**  Thermal conductivity: t*mm/K/s^3 == as W/m/K == kW/mm/K
**  Specific Heat: mm^2/s^2/K = J/kg/K == kJ/t/K
**
