** written by FreeCAD inp file writer for CalculiX,Abaqus meshes
** highest dimension mesh elements only.

** Nodes
*Node, NSET=Nall
1, -5e-15, 5, 212
2, -5e-15, -5, 212
3, -2e-15, 5, 200
4, -2e-15, -5, 200
5, -5, -3, 180
6, -5, -3, 48
7, -5, 3, 180
8, -5, 3, 48
9, 5, -3, 180
10, 5, -3, 48
11, 5, 3, 180
12, 5, 3, 48
13, -7e-15, 5, 76
14, -7e-15, -5, 76
15, 10, 5, 209.3205080757
16, 17.32050807569, 5, 202
17, 20, 5, 192
18, 17.32050807569, 5, 182
19, 10, 5, 174.6794919243
20, -1.130139009627e-13, 5, 172
21, -10, 5, 174.6794919243
22, -17.32050807569, 5, 182
23, -20, 5, 192
24, -17.32050807569, 5, 202
25, -10, 5, 209.3205080757
26, 5.17638090205, 5, 211.3185165258
27, 14.14213562373, 5, 206.1421356237
28, 19.31851652578, 5, 197.1763809021
29, 19.31851652578, 5, 186.8236190979
30, 14.14213562373, 5, 177.8578643763
31, 5.17638090205, 5, 172.6814834742
32, -5.176380902051, 5, 172.6814834742
33, -14.14213562373, 5, 177.8578643763
34, -19.31851652578, 5, 186.8236190979
35, -19.31851652578, 5, 197.1763809021
36, -14.14213562373, 5, 206.1421356237
37, -5.17638090205, 5, 211.3185165258
38, -4.9e-15, 0, 212
39, 10, -5, 209.3205080757
40, 17.32050807569, -5, 202
41, 20, -5, 192
42, 17.32050807569, -5, 182
43, 10, -5, 174.6794919243
44, -1.130139009627e-13, -5, 172
45, -10, -5, 174.6794919243
46, -17.32050807569, -5, 182
47, -20, -5, 192
48, -17.32050807569, -5, 202
49, -10, -5, 209.3205080757
50, 5.17638090205, -5, 211.3185165258
51, 14.14213562373, -5, 206.1421356237
52, 19.31851652578, -5, 197.1763809021
53, 19.31851652578, -5, 186.8236190979
54, 14.14213562373, -5, 177.8578643763
55, 5.17638090205, -5, 172.6814834742
56, -5.176380902051, -5, 172.6814834742
57, -14.14213562373, -5, 177.8578643763
58, -19.31851652578, -5, 186.8236190979
59, -19.31851652578, -5, 197.1763809021
60, -14.14213562373, -5, 206.1421356237
61, -5.17638090205, -5, 211.3185165258
62, 4, 5, 198.9282032303
63, 6.928203230276, 5, 196
64, 8, 5, 192
65, 6.928203230275, 5, 188
66, 4, 5, 185.0717967697
67, -4.520556038509e-14, 5, 184
68, -4, 5, 185.0717967697
69, -6.928203230276, 5, 188
70, -8, 5, 192
71, -6.928203230275, 5, 196
72, -4, 5, 198.9282032303
73, 2.07055236082, 5, 199.7274066103
74, 5.656854249492, 5, 197.6568542495
75, 7.727406610313, 5, 194.0705523608
76, 7.727406610313, 5, 189.9294476392
77, 5.656854249492, 5, 186.3431457505
78, 2.07055236082, 5, 184.2725933897
79, -2.07055236082, 5, 184.2725933897
80, -5.656854249492, 5, 186.3431457505
81, -7.727406610313, 5, 189.9294476392
82, -7.727406610313, 5, 194.0705523608
83, -5.656854249492, 5, 197.6568542495
84, -2.07055236082, 5, 199.7274066103
85, 4, -5, 198.9282032303
86, 6.928203230276, -5, 196
87, 8, -5, 192
88, 6.928203230275, -5, 188
89, 4, -5, 185.0717967697
90, -4.520556038509e-14, -5, 184
91, -4, -5, 185.0717967697
92, -6.928203230276, -5, 188
93, -8, -5, 192
94, -6.928203230275, -5, 196
95, -4, -5, 198.9282032303
96, 2.07055236082, -5, 199.7274066103
97, 5.656854249492, -5, 197.6568542495
98, 7.727406610313, -5, 194.0705523608
99, 7.727406610313, -5, 189.9294476392
100, 5.656854249492, -5, 186.3431457505
101, 2.07055236082, -5, 184.2725933897
102, -2.07055236082, -5, 184.2725933897
103, -5.656854249492, -5, 186.3431457505
104, -7.727406610313, -5, 189.9294476392
105, -7.727406610313, -5, 194.0705523608
106, -5.656854249492, -5, 197.6568542495
107, -2.07055236082, -5, 199.7274066103
108, -1.96e-15, -1.666666666667, 200
109, -1.96e-15, 1.666666666667, 200
110, -1.96e-15, -3.333333333333, 200
111, -1.96e-15, 8.881784197001e-16, 200
112, -1.96e-15, 3.333333333333, 200
113, -5, -3, 114
114, -5, 0, 180
115, -5, 3, 114
116, -5, 0, 48
117, 5, -3, 114
118, 5, 0, 180
119, 5, 3, 114
120, 5, 0, 48
121, 0, -3, 48
122, 0, -3, 180
123, 0, 3, 48
124, 0, 3, 180
125, 14, 5, 72.24871130596
126, 24.24871130596, 5, 62
127, 28, 5, 48
128, 24.24871130596, 5, 34
129, 14, 5, 23.75128869404
130, -1.706539592236e-13, 5, 20
131, -14, 5, 23.75128869404
132, -24.24871130596, 5, 34
133, -28, 5, 48
134, -24.24871130596, 5, 62
135, -14, 5, 72.24871130596
136, 7.246933262871, 5, 75.04592313609
137, 19.79898987322, 5, 67.79898987322
138, 27.04592313609, 5, 55.24693326287
139, 27.04592313609, 5, 40.75306673713
140, 19.79898987322, 5, 28.20101012678
141, 7.24693326287, 5, 20.95407686391
142, -7.246933262871, 5, 20.95407686391
143, -19.79898987322, 5, 28.20101012678
144, -27.04592313609, 5, 40.75306673713
145, -27.04592313609, 5, 55.24693326287
146, -19.79898987322, 5, 67.79898987322
147, -7.24693326287, 5, 75.04592313609
148, -6.86e-15, 0, 76
149, 14, -5, 72.24871130596
150, 24.24871130596, -5, 62
151, 28, -5, 48
152, 24.24871130596, -5, 34
153, 14, -5, 23.75128869404
154, -1.706539592236e-13, -5, 20
155, -14, -5, 23.75128869404
156, -24.24871130596, -5, 34
157, -28, -5, 48
158, -24.24871130596, -5, 62
159, -14, -5, 72.24871130596
160, 7.246933262871, -5, 75.04592313609
161, 19.79898987322, -5, 67.79898987322
162, 27.04592313609, -5, 55.24693326287
163, 27.04592313609, -5, 40.75306673713
164, 19.79898987322, -5, 28.20101012678
165, 7.24693326287, -5, 20.95407686391
166, -7.246933262871, -5, 20.95407686391
167, -19.79898987322, -5, 28.20101012678
168, -27.04592313609, -5, 40.75306673713
169, -27.04592313609, -5, 55.24693326287
170, -19.79898987322, -5, 67.79898987322
171, -7.24693326287, -5, 75.04592313609
172, 5.17638090205, 0, 211.3185165258
173, -5.17638090205, 0, 211.3185165258
174, 10, 0, 209.3205080757
175, -10, 0, 209.3205080757
176, 14.14213562373, 0, 206.1421356237
177, 19.31851652578, 0, 197.1763809021
178, 20, 0, 192
179, 17.32050807569, 0, 202
180, 19.31851652578, 0, 186.8236190979
181, 17.32050807569, 0, 182
182, 14.14213562373, 0, 177.8578643763
183, 10, 0, 174.6794919243
184, 5.17638090205, 0, 172.6814834742
185, -5.176380902051, 0, 172.6814834742
186, -1.130139009627e-13, 0, 172
187, -14.14213562373, 0, 177.8578643763
188, -17.32050807569, 0, 182
189, -10, 0, 174.6794919243
190, -19.31851652578, 0, 186.8236190979
191, -19.31851652578, 0, 197.1763809021
192, -17.32050807569, 0, 202
193, -20, 0, 192
194, -14.14213562373, 0, 206.1421356237
195, 3.416237101988, 5, 204.7495704353
196, 9.333333333333, 5, 182.6666666667
197, -3.472079033996, 5, 204.5411655079
198, -9.286798389993, 5, 201.0901942513
199, -12.74957043532, 5, 188.583762898
200, -12.38084668855, 5, 195.2789928582
201, -9.124928405887, 5, 182.7225085987
202, 3.26367410655, 5, 179.4029925601
203, 12.59700743988, 5, 188.7363258935
204, -3.31020904989, 5, 179.6461316421
205, 9.277491401325, 5, 201.1249284059
206, 12.35386835786, 5, 195.3102090499
207, 6.708118550994, 5, 207.0350392555
208, 1.708118550994, 5, 208.3747852177
209, -1.736039516998, 5, 208.2705827539
210, -6.736039516998, 5, 206.9308367918
211, -0.02792096600395, 5, 204.6453679716
212, 1.708118550994, 5, 202.3747852177
213, 3.708118550994, 5, 201.8388868328
214, -3.736039516998, 5, 201.7346843691
215, -1.736039516998, 5, 202.2705827539
216, 13.29899973851, 5, 201.5624642029
217, 9.638745700663, 5, 205.2227182408
218, 6.346864251657, 5, 202.9372494206
219, 16.17693417893, 5, 193.6551045249
220, 14.83718821678, 5, 198.6551045249
221, 10.81567987959, 5, 198.2175687279
222, 14.95875775779, 5, 185.3681629467
223, 16.29850371994, 5, 190.3681629467
224, 12.47543789887, 5, 192.0232674717
225, 9.666666666667, 5, 178.6730792955
226, 13.32692070451, 5, 182.3333333333
227, 10.96517038661, 5, 185.7014962801
228, 1.631837053275, 5, 175.7014962801
229, 6.631837053275, 5, 177.0412422422
230, 6.298503719941, 5, 181.0348296134
231, -6.655104524945, 5, 177.1628117832
232, -1.655104524945, 5, 175.8230658211
233, -0.02326747167005, 5, 179.5245621011
234, -13.22271824079, 5, 182.3612542993
235, -9.562464202944, 5, 178.7010002615
236, -6.217568727888, 5, 181.1843201204
237, -16.37478521766, 5, 190.291881449
238, -15.03503925551, 5, 185.291881449
239, -10.9372494206, 5, 185.6531357483
240, -14.85067738212, 5, 198.6394964291
241, -16.19042334427, 5, 193.6394964291
242, -12.56520856193, 5, 191.9313778781
243, -9.643399194997, 5, 205.2053511635
244, -13.30365323284, 5, 201.5450971257
245, -10.83382253927, 5, 198.1845935548
246, -6.379438711995, 5, 202.8156798796
247, 6.638745700663, 5, 200.0265658181
248, 8.1028473158, 5, 198.5624642029
249, 9.641035794069, 5, 195.6551045249
250, 10.17693417893, 5, 193.6551045249
251, 10.29850371994, 5, 190.3681629467
252, 9.762605335079, 5, 188.3681629467
253, 8.130768281804, 5, 185.3333333333
254, 6.666666666667, 5, 183.8692317182
255, 3.631837053275, 5, 182.2373946649
256, 1.631837053275, 5, 181.7014962801
257, -1.655104524945, 5, 181.8230658211
258, -3.655104524945, 5, 182.3589642059
259, -6.562464202943, 5, 183.8971526842
260, -8.026565818081, 5, 185.3612542993
261, -9.838886832798, 5, 188.291881449
262, -10.37478521766, 5, 190.291881449
263, -10.19042334427, 5, 193.6394964291
264, -9.654524959411, 5, 195.6394964291
265, -8.107500810134, 5, 198.5450971257
266, -6.643399194997, 5, 200.0091987408
267, 3.416237101988, -5, 204.7495704353
268, 9.333333333333, -5, 182.6666666667
269, -3.472079033996, -5, 204.5411655079
270, -9.286798389993, -5, 201.0901942513
271, -12.74957043532, -5, 188.583762898
272, -12.38084668855, -5, 195.2789928582
273, -9.124928405887, -5, 182.7225085987
274, 3.26367410655, -5, 179.4029925601
275, 12.59700743988, -5, 188.7363258935
276, -3.31020904989, -5, 179.6461316421
277, 9.277491401325, -5, 201.1249284059
278, 12.35386835786, -5, 195.3102090499
279, 1.708118550994, -5, 208.3747852177
280, 6.708118550994, -5, 207.0350392555
281, -6.736039516998, -5, 206.9308367918
282, -1.736039516998, -5, 208.2705827539
283, -0.02792096600395, -5, 204.6453679716
284, 3.708118550994, -5, 201.8388868328
285, 1.708118550994, -5, 202.3747852177
286, -1.736039516998, -5, 202.2705827539
287, -3.736039516998, -5, 201.7346843691
288, 9.638745700663, -5, 205.2227182408
289, 13.29899973851, -5, 201.5624642029
290, 6.346864251657, -5, 202.9372494206
291, 14.83718821678, -5, 198.6551045249
292, 16.17693417893, -5, 193.6551045249
293, 10.81567987959, -5, 198.2175687279
294, 16.29850371994, -5, 190.3681629467
295, 14.95875775779, -5, 185.3681629467
296, 12.47543789887, -5, 192.0232674717
297, 13.32692070451, -5, 182.3333333333
298, 9.666666666667, -5, 178.6730792955
299, 10.96517038661, -5, 185.7014962801
300, 6.631837053275, -5, 177.0412422422
301, 1.631837053275, -5, 175.7014962801
302, 6.298503719941, -5, 181.0348296134
303, -1.655104524945, -5, 175.8230658211
304, -6.655104524945, -5, 177.1628117832
305, -0.02326747167005, -5, 179.5245621011
306, -9.562464202944, -5, 178.7010002615
307, -13.22271824079, -5, 182.3612542993
308, -6.217568727888, -5, 181.1843201204
309, -15.03503925551, -5, 185.291881449
310, -16.37478521766, -5, 190.291881449
311, -10.9372494206, -5, 185.6531357483
312, -16.19042334427, -5, 193.6394964291
313, -14.85067738212, -5, 198.6394964291
314, -12.56520856193, -5, 191.9313778781
315, -13.30365323284, -5, 201.5450971257
316, -9.643399194997, -5, 205.2053511635
317, -10.83382253927, -5, 198.1845935548
318, -6.379438711995, -5, 202.8156798796
319, 8.1028473158, -5, 198.5624642029
320, 6.638745700663, -5, 200.0265658181
321, 10.17693417893, -5, 193.6551045249
322, 9.641035794069, -5, 195.6551045249
323, 9.762605335079, -5, 188.3681629467
324, 10.29850371994, -5, 190.3681629467
325, 6.666666666667, -5, 183.8692317182
326, 8.130768281804, -5, 185.3333333333
327, 1.631837053275, -5, 181.7014962801
328, 3.631837053275, -5, 182.2373946649
329, -3.655104524945, -5, 182.3589642059
330, -1.655104524945, -5, 181.8230658211
331, -8.026565818081, -5, 185.3612542993
332, -6.562464202943, -5, 183.8971526842
333, -10.37478521766, -5, 190.291881449
334, -9.838886832798, -5, 188.291881449
335, -9.654524959411, -5, 195.6394964291
336, -10.19042334427, -5, 193.6394964291
337, -6.643399194997, -5, 200.0091987408
338, -8.107500810134, -5, 198.5450971257
339, -7.751173309934, 0.0004090689846006, 193.9797253141
340, -5.900629000126, 0.008584387974766, 197.4020900958
341, 5.900629000126, 0.008584387974766, 197.4020900958
342, 7.751173309934, 0.0004090689846006, 193.9797253141
343, -7.727406610313, 0, 189.9294476392
344, -5.656854249492, 0, 186.3431457505
345, -2.07055236082, 3.333333333333, 199.7274066103
346, -3.330387815149, 0.3820363689807, 199.2738240975
347, 3.330387815149, 0.3820363689807, 199.2738240975
348, 2.07055236082, 3.333333333333, 199.7274066103
349, 1.816621978181, -2.083765626184, 199.7910130656
350, -1.816621978181, -2.083765626184, 199.7910130656
351, -2.07055236082, 0, 184.2725933897
352, 2.07055236082, 0, 184.2725933897
353, 5.656854249492, -8.881784197001e-16, 186.3431457505
354, 7.727406610313, 0, 189.9294476392
355, 1.04420953776, 4.166666666667, 199.931558891
356, 3.061467458921, 4.166666666667, 199.3910362601
357, -1.04420953776, 4.166666666667, 199.931558891
358, -3.061467458921, 4.166666666667, 199.3910362601
359, -1.04420953776, 2.5, 199.931558891
360, 1.04420953776, 2.5, 199.931558891
361, 0.914301775996, -3.541882813092, 199.9475815354
362, 2.940133162333, -3.541882813092, 199.440135549
363, -0.914301775996, -3.541882813092, 199.9475815354
364, -2.940133162333, -3.541882813092, 199.440135549
365, 0.914301775996, -1.875216146425, 199.9475815354
366, -0.914301775996, -1.875216146425, 199.9475815354
367, 5.008779190018, 2.504292193987, 198.237958883
368, 6.452611739297, 2.504292193987, 196.7290381413
369, 4.709433607583, 0.1953103784777, 198.4669339795
370, 3.669265570394, 2.69101818449, 199.1089021778
371, 2.709976562646, 1.857684851157, 199.5270197974
372, 7.408873150076, 2.500204534492, 195.018045501
373, 7.937549574002, 2.500204534492, 192.9976506203
374, 7.037120984672, 0.004496728479683, 195.8051186903
375, 7.93155889099, 2.5, 190.9557904622
376, 7.39103626009, 2.5, 188.9385325411
377, 7.999862273683, 0.0002045344923003, 191.9530574595
378, 6.34682672233, 2.5, 187.1299085679
379, 4.87009143207, 2.5, 185.6531732777
380, 6.928203230275, 0, 188
381, 3.061467458921, 2.5, 184.6089637399
382, 1.04420953776, 2.5, 184.068441109
383, 4, 0, 185.0717967697
384, -3.061467458921, 2.5, 184.6089637399
385, -1.04420953776, 2.5, 184.068441109
386, -4.165284670629e-14, 0, 184
387, -4.87009143207, 2.5, 185.6531732777
388, -6.34682672233, 2.5, 187.1299085679
389, -4, 0, 185.0717967697
390, -7.39103626009, 2.5, 188.9385325411
391, -7.93155889099, 2.5, 190.9557904622
392, -6.928203230276, 0, 188
393, -7.937549574002, 2.500204534492, 192.9976506203
394, -7.408873150076, 2.500204534492, 195.018045501
395, -7.999862273683, 0.0002045344923003, 191.9530574595
396, -6.452611739297, 2.504292193987, 196.7290381413
397, -5.008779190018, 2.504292193987, 198.237958883
398, -7.037120984672, 0.004496728479683, 195.8051186903
399, -4.709433607583, 0.1953103784777, 198.4669339795
400, -3.669265570394, 2.69101818449, 199.1089021778
401, -2.709976562646, 1.857684851157, 199.5270197974
402, 6.452611739297, -2.495707806013, 196.7290381413
403, 5.008779190018, -2.495707806013, 198.237958883
404, 3.669265570394, -2.30898181551, 199.1089021778
405, 2.586464490448, -0.8508646286017, 199.570350153
406, 7.937549574002, -2.499795465508, 192.9976506203
407, 7.408873150076, -2.499795465508, 195.018045501
408, 7.39103626009, -2.5, 188.9385325411
409, 7.93155889099, -2.5, 190.9557904622
410, 4.87009143207, -2.5, 185.6531732777
411, 6.34682672233, -2.5, 187.1299085679
412, 1.04420953776, -2.5, 184.068441109
413, 3.061467458921, -2.5, 184.6089637399
414, -1.04420953776, -2.5, 184.068441109
415, -3.061467458921, -2.5, 184.6089637399
416, -6.34682672233, -2.5, 187.1299085679
417, -4.87009143207, -2.5, 185.6531732777
418, -7.93155889099, -2.5, 190.9557904622
419, -7.39103626009, -2.5, 188.9385325411
420, -7.408873150076, -2.499795465508, 195.018045501
421, -7.937549574002, -2.499795465508, 192.9976506203
422, -5.008779190018, -2.495707806013, 198.237958883
423, -6.452611739297, -2.495707806013, 196.7290381413
424, -3.669265570394, -2.30898181551, 199.1089021778
425, -2.586464490448, -0.8508646286017, 199.570350153
426, 0.914301775996, -0.2085494797587, 199.9475815354
427, -0.914301775996, -0.2085494797587, 199.9475815354
428, -1.704319104564, 1.024351517824, 199.8163480213
429, 1.704319104564, 1.024351517824, 199.8163480213
430, -5, 0, 114
431, 5, 0, 114
432, 0, -3, 114
433, 0, 3, 114
434, 0, 0, 48
435, -2.5, 1.5, 48
436, -2.5, -1.5, 48
437, 2.5, -1.5, 48
438, 2.5, 1.5, 48
439, 0, 0, 180
440, -2.5, -1.5, 180
441, -2.5, 1.5, 180
442, 2.5, -1.5, 180
443, 2.5, 1.5, 180
444, 7.246933262871, 0, 75.04592313609
445, -7.246933262871, 0, 75.04592313609
446, 14, 0, 72.24871130596
447, -14, 0, 72.24871130596
448, 19.79898987322, 0, 67.79898987322
449, 24.24871130596, 0, 62
450, 27.04592313609, 0, 55.24693326287
451, 28, 0, 48
452, 27.04592313609, 0, 40.75306673713
453, 19.79898987322, 0, 28.20101012678
454, 24.24871130596, 0, 34
455, 7.24693326287, 0, 20.95407686391
456, -1.706539592236e-13, 0, 20
457, 14, 0, 23.75128869404
458, -7.246933262871, 0, 20.95407686391
459, -14, 0, 23.75128869404
460, -19.79898987322, 0, 28.20101012678
461, -24.24871130596, 0, 34
462, -27.04592313609, 0, 40.75306673713
463, -27.04592313609, 0, 55.24693326287
464, -24.24871130596, 0, 62
465, -28, 0, 48
466, -19.79898987322, 0, 67.79898987322
467, -7.174332940777e-15, 5, 48
468, -3.751288694036, 5, 62
469, -14, 5, 51.75128869404
470, 3.751288694036, 5, 34
471, 14, 5, 44.24871130596
472, 10.24871130596, 5, 58.24871130596
473, -10.24871130596, 5, 37.75128869404
474, 5.124355652982, 5, 67.12435565298
475, -14, 5, 62
476, 19.12435565298, 5, 53.12435565298
477, 14, 5, 34
478, 9.562177826491, 5, 69.68653347947
479, 2.562177826491, 5, 71.56217782649
480, -1.875644347018, 5, 69
481, -8.875644347018, 5, 67.12435565298
482, 0.6865334794732, 5, 64.56217782649
483, 17.24871130596, 5, 60.12435565298
484, 12.12435565298, 5, 65.24871130596
485, 7.686533479473, 5, 62.68653347947
486, 23.56217782649, 5, 50.56217782649
487, 21.68653347947, 5, 57.56217782649
488, 14.68653347947, 5, 55.68653347947
489, 19.12435565298, 5, 39.12435565298
490, 21, 5, 46.12435565298
491, 16.56217782649, 5, 48.68653347947
492, 14, 5, 28.87564434702
493, 19.12435565298, 5, 34
494, 14, 5, 39.12435565298
495, 1.875644347018, 5, 27
496, 8.875644347018, 5, 28.87564434702
497, 8.875644347018, 5, 34
498, -12.12435565298, 5, 30.75128869404
499, -5.124355652982, 5, 28.87564434702
500, -3.248711305964, 5, 35.87564434702
501, -17.24871130596, 5, 35.87564434702
502, -21, 5, 49.87564434702
503, -19.12435565298, 5, 42.87564434702
504, -12.12435565298, 5, 44.75128869404
505, -19.12435565298, 5, 56.87564434702
506, -14, 5, 67.12435565298
507, -19.12435565298, 5, 62
508, -14, 5, 56.87564434702
509, -8.875644347018, 5, 62
510, -7, 5, 49.87564434702
511, -8.875644347018, 5, 56.87564434702
512, -1.875644347018, 5, 55
513, 3.248711305964, 5, 60.12435565298
514, 5.124355652982, 5, 53.12435565298
515, -5.124355652982, 5, 42.87564434702
516, 7, 5, 46.12435565298
517, 8.875644347018, 5, 39.12435565298
518, 1.875644347018, 5, 41
519, 12.12435565298, 5, 51.24871130596
520, -7.174332940777e-15, -5, 48
521, -3.751288694036, -5, 62
522, -14, -5, 51.75128869404
523, 3.751288694036, -5, 34
524, 14, -5, 44.24871130596
525, 10.24871130596, -5, 58.24871130596
526, -10.24871130596, -5, 37.75128869404
527, 5.124355652982, -5, 67.12435565298
528, -14, -5, 62
529, 19.12435565298, -5, 53.12435565298
530, 14, -5, 34
531, 2.562177826491, -5, 71.56217782649
532, 9.562177826491, -5, 69.68653347947
533, -8.875644347018, -5, 67.12435565298
534, -1.875644347018, -5, 69
535, 0.6865334794732, -5, 64.56217782649
536, 12.12435565298, -5, 65.24871130596
537, 17.24871130596, -5, 60.12435565298
538, 7.686533479473, -5, 62.68653347947
539, 21.68653347947, -5, 57.56217782649
540, 23.56217782649, -5, 50.56217782649
541, 14.68653347947, -5, 55.68653347947
542, 21, -5, 46.12435565298
543, 19.12435565298, -5, 39.12435565298
544, 16.56217782649, -5, 48.68653347947
545, 19.12435565298, -5, 34
546, 14, -5, 28.87564434702
547, 14, -5, 39.12435565298
548, 8.875644347018, -5, 28.87564434702
549, 1.875644347018, -5, 27
550, 8.875644347018, -5, 34
551, -5.124355652982, -5, 28.87564434702
552, -12.12435565298, -5, 30.75128869404
553, -3.248711305964, -5, 35.87564434702
554, -17.24871130596, -5, 35.87564434702
555, -19.12435565298, -5, 42.87564434702
556, -21, -5, 49.87564434702
557, -12.12435565298, -5, 44.75128869404
558, -19.12435565298, -5, 56.87564434702
559, -19.12435565298, -5, 62
560, -14, -5, 67.12435565298
561, -14, -5, 56.87564434702
562, -8.875644347018, -5, 62
563, -1.875644347018, -5, 55
564, -8.875644347018, -5, 56.87564434702
565, -7, -5, 49.87564434702
566, 5.124355652982, -5, 53.12435565298
567, 3.248711305964, -5, 60.12435565298
568, -5.124355652982, -5, 42.87564434702
569, 1.875644347018, -5, 41
570, 8.875644347018, -5, 39.12435565298
571, 7, -5, 46.12435565298
572, 12.12435565298, -5, 51.24871130596
573, 15.28761091622, -7.216767801455e-17, 195.8350285147
574, 9.274950641241, 0, 202.7846252033
575, 1.879065298762, 1.7763568394e-15, 204.5912207106
576, 16.30405949595, -2.5, 198.9175142573
577, 17.64380545811, -2.5, 193.9175142573
578, 16.30405949595, 2.5, 198.9175142573
579, 17.64380545811, 2.5, 193.9175142573
580, 5.701942847077, 2.5, 183.4696300282
581, 7.495093791413, 2.5, 184.5049062086
582, 5.701942847077, -2.5, 183.4696300282
583, 7.495093791413, -2.5, 184.5049062086
584, 9.333333333333, 0, 182.6666666667
585, 0.5965608728647, 2.5, 181.8377929749
586, 2.667113233685, 2.5, 181.8377929749
587, 0.5965608728647, -2.5, 181.8377929749
588, 2.667113233685, -2.5, 181.8377929749
589, 3.26367410655, 0, 179.4029925601
590, -7.39089132769, -2.5, 184.5328271746
591, -9.124928405887, 0, 182.7225085987
592, -7.39089132769, 2.5, 184.5328271746
593, -5.597740383354, 2.5, 183.4975509942
594, -5.597740383354, -2.5, 183.4975509942
595, 10.1622070251, 2.5, 189.3328867663
596, 10.17409037491, 2.500204534492, 191.3580256038
597, 10.17409037491, -2.499795465508, 191.3580256038
598, 12.59700743988, 0, 188.7363258935
599, 10.1622070251, -2.5, 189.3328867663
600, -9.140737844336, 2.504292193987, 196.340541477
601, -10.06600999924, 2.500204534492, 194.6293590862
602, -10.06600999924, -2.499795465508, 194.6293590862
603, -12.38084668855, 0, 195.2789928582
604, -9.140737844336, -2.495707806013, 196.340541477
605, -6.308593102571, 2.69101818449, 200.1820091744
606, -3.401233424572, 2.69101818449, 201.9074948027
607, -3.472079033996, 0, 204.5411655079
608, -3.401233424572, -2.30898181551, 201.9074948027
609, -6.379438711995, 0, 202.8156798796
610, 6.298503719941, 0, 181.0348296134
611, -6.308593102571, -2.30898181551, 200.1820091744
612, -9.286798389993, 0, 201.0901942513
613, 12.47543789887, 0, 192.0232674717
614, 10.0525208339, -2.499795465508, 194.644967182
615, -6.217568727888, 0, 181.1843201204
616, -2.690380705355, 2.5, 181.9593625159
617, -2.690380705355, -2.5, 181.9593625159
618, -0.02326747167005, 0, 179.5245621011
619, -7.59371369506, 2.504292193987, 199.2461421735
620, -10.83382253927, 0, 198.1845935548
621, -7.59371369506, -2.495707806013, 199.2461421735
622, 10.0525208339, 2.500204534492, 194.644967182
623, 12.35386835786, 0, 195.3102090499
624, -3.31020904989, 0, 179.6461316421
625, 0.9395326493808, 0.8333333333333, 202.2956103553
626, 0.9395326493808, -0.8333333333333, 202.2956103553
627, 0.03122166029049, -1.041882813092, 202.1911168881
628, -2.771315697408, 4.166666666667, 202.1342860591
629, -1.736039516998, 3.333333333333, 202.2705827539
630, -0.7256612581935, 0.1910181844904, 201.932522404
631, -12.74957043532, 0, 188.583762898
632, -16.37478521766, 0, 190.291881449
633, -12.56520856193, 0, 191.9313778781
634, -1.736039516998, 0, 208.2705827539
635, -0.7965068676172, 2.5, 204.5661931092
636, -0.7965068676172, -2.5, 204.5661931092
637, 0.9395326493808, 2.5, 208.2956103553
638, 9.126930844688, 2.5, 187.539735822
639, 9.126930844688, -2.5, 187.539735822
640, -8.4261675081, -2.5, 186.3259781189
641, -8.4261675081, 2.5, 186.3259781189
642, -9.643399194997, 0, 205.2053511635
643, -14.85067738212, 0, 198.6394964291
644, -2.644350506088, -3.541882813092, 202.1660892867
645, -10.05412664943, 2.5, 192.6042202487
646, -10.05412664943, -2.5, 192.6042202487
647, 2.743394731404, 4.166666666667, 202.2384885228
648, 3.373312458568, 2.69101818449, 202.0116972664
649, 9.127248678994, 2.504292193987, 196.3561495728
650, 7.587789820683, 0.004292193987383, 200.0933576496
651, 10.81440949955, 2.5, 199.0474171266
652, 8.513061975587, 0.0002045344923003, 198.3821752587
653, 9.127248678994, -2.495707806013, 196.3561495728
654, 10.81440949955, -2.5, 199.0474171266
655, -15.03503925551, 0, 185.291881449
656, -6.736039516998, 0, 206.9308367918
657, -13.30365323284, 0, 201.5450971257
658, -16.19042334427, 0, 193.6394964291
659, 5.545786309711, -1.041882813092, 201.2878191345
660, 6.302669228195, 0.1910181844904, 201.0292246504
661, 6.63747532062, -2.5, 200.8564142168
662, 10.96517038661, 0, 185.7014962801
663, 13.32692070451, 0, 182.3333333333
664, 9.666666666667, 0, 178.6730792955
665, -10.9372494206, 0, 185.6531357483
666, -10.23848852282, -2.5, 189.2566052686
667, -10.23848852282, 2.5, 189.2566052686
668, 6.631837053275, 0, 177.0412422422
669, -13.22271824079, 0, 182.3612542993
670, 14.95875775779, 0, 185.3681629467
671, 1.631837053275, 0, 175.7014962801
672, -9.562464202944, 0, 178.7010002615
673, -6.655104524945, 0, 177.1628117832
674, -1.655104524945, 0, 175.8230658211
675, 13.82073963704, -2.5, 195.5726187823
676, 13.82073963704, 2.5, 195.5726187823
677, 12.28128077873, -3.608383900728e-17, 199.309826859
678, 7.589060200726, -2.495707806013, 199.2635092508
679, 0.9395326493808, -2.5, 208.2956103553
680, 7.589060200726, 2.504292193987, 199.2635092508
681, 16.29850371994, 0, 190.3681629467
682, 2.616429540084, -3.541882813092, 202.2702917505
683, 6.345593871614, -2.5, 203.7670978193
684, 9.276221021283, -2.5, 201.9547768046
685, 9.276221021283, 2.5, 201.9547768046
686, 6.303939608237, 2.69101818449, 200.1993762517
687, 13.29772935846, 2.5, 202.3923126017
688, 9.63747532062, -2.5, 206.0525666395
689, 13.29772935846, -2.5, 202.3923126017
690, 1.974808829791, 1.666666666667, 202.1593136604
691, 2.647651200375, 2.5, 204.6703955729
692, 2.604726556955, 0.1910181844904, 201.932522404
693, 5.939532649381, 2.5, 206.9558643931
694, 0.9395326493808, 2.5, 202.2956103553
695, 1.847843638471, -1.041882813092, 202.1911168881
696, 9.63747532062, 2.5, 206.0525666395
697, 5.939532649381, -2.5, 206.9558643931
698, 6.345593871614, 2.5, 203.7670978193
699, 5.577007970001, 8.881784197001e-16, 203.687922957
700, 2.647651200375, -2.5, 204.6703955729
701, 0.9395326493808, -2.5, 202.2956103553
702, 13.94230917805, -2.5, 192.2856772041
703, 13.94230917805, 2.5, 192.2856772041
704, -2.5, -1.5, 114
705, -2.5, 1.5, 114
706, 0, 0, 114
707, 2.5, 1.5, 114
708, 2.5, -1.5, 114
709, 8.975377643885, -0.8976663497507, 65.49317875684
710, 5.93537837674, -0.01296017741486, 25.92144332982
711, -6.011920087684, -0.5, 28.36320878172
712, -3.005960043842, -2.75, 24.18160439086
713, -1.130315696824, -2.75, 31.18160439086
714, -8.130315696824, -2.75, 33.05724873788
715, -10.00596004384, -2.75, 26.05724873788
716, 8.875644347018, 0, 28.87564434702
717, 3.751288694036, 0, 34
718, 4.843333535388, 2.493519911293, 29.96072166491
719, 4.843333535388, -2.506480088707, 29.96072166491
720, 9.96768918837, -2.506480088707, 24.83636601193
721, 9.96768918837, 2.493519911293, 24.83636601193
722, 5.124355652982, 0, 67.12435565298
723, 9.562177826491, 0, 69.68653347947
724, 11.48768882194, -2.948833174875, 68.8709450314
725, 7.049866648434, 2.051166825125, 66.30876720491
726, 7.049866648434, -2.948833174875, 66.30876720491
727, 1.875644347018, 0, 27
728, 2.96768918837, 2.493519911293, 22.96072166491
729, -12.12435565298, 0, 30.75128869404
730, -8.130315696824, 2.25, 33.05724873788
731, -10.00596004384, 2.25, 26.05724873788
732, 2.96768918837, -2.506480088707, 22.96072166491
733, 14, 0, 28.87564434702
734, 8.875644347018, 0, 34
735, 14, 0, 34
736, 19.12435565298, 0, 53.12435565298
737, 14.68653347947, 0, 55.68653347947
738, 16.56217782649, 0, 48.68653347947
739, 14, 0, 39.12435565298
740, -8.875644347018, 0, 62
741, -14, 0, 67.12435565298
742, -14, 0, 62
743, 23.56217782649, 0, 50.56217782649
744, -10.24871130596, 0, 37.75128869404
745, 7, 0, 46.12435565298
746, 1.875644347018, 0, 41
747, 5.124355652982, 0, 53.12435565298
748, 8.875644347018, 0, 39.12435565298
749, 12.12435565298, 0, 51.24871130596
750, 10.24871130596, 0, 58.24871130596
751, -1.875644347018, 0, 55
752, 14, 0, 44.24871130596
753, 3.248711305964, 0, 60.12435565298
754, -3.751288694036, 0, 62
755, 2.562177826491, 0, 71.56217782649
756, 21.68653347947, 0, 57.56217782649
757, 19.12435565298, 0, 34
758, -19.12435565298, 0, 62
759, 0.6865334794732, 0, 64.56217782649
760, -1.875644347018, 0, 69
761, 11.48768882194, 2.051166825125, 68.8709450314
762, -8.875644347018, 0, 67.12435565298
763, 21, 0, 46.12435565298
764, -3.248711305964, 0, 35.87564434702
765, 19.12435565298, 0, 39.12435565298
766, 9.612044474925, -2.948833174875, 61.8709450314
767, -14, 0, 56.87564434702
768, -21, 0, 49.87564434702
769, 17.24871130596, 0, 60.12435565298
770, -8.875644347018, 0, 56.87564434702
771, -7, 0, 49.87564434702
772, -5.124355652982, 0, 42.87564434702
773, -19.12435565298, 0, 42.87564434702
774, -14, 0, 51.75128869404
775, -19.12435565298, 0, 56.87564434702
776, -12.12435565298, 0, 44.75128869404
777, -17.24871130596, 0, 35.87564434702
778, 9.612044474925, 2.051166825125, 61.8709450314
779, 16.61204447492, -2.948833174875, 63.74658937842
780, 2.612044474925, 2.051166825125, 63.74658937842
781, 2.612044474925, -2.948833174875, 63.74658937842
782, -3.005960043842, 2.25, 24.18160439086


** Volume elements
*Element, TYPE=C3D10, ELSET=Evolumes
388, 41, 40, 16, 573, 52, 179, 177, 577, 576, 578
389, 41, 16, 17, 573, 177, 28, 178, 577, 578, 579
390, 353, 352, 196, 268, 383, 580, 581, 583, 582, 584
391, 352, 351, 202, 274, 386, 585, 586, 588, 587, 589
392, 201, 344, 273, 351, 592, 590, 591, 593, 389, 594
393, 203, 342, 354, 275, 596, 377, 595, 598, 597, 599
394, 200, 339, 340, 272, 601, 398, 600, 603, 602, 604
395, 346, 197, 198, 269, 606, 246, 605, 608, 607, 609
396, 274, 196, 352, 268, 610, 580, 588, 302, 584, 582
397, 198, 270, 346, 269, 612, 611, 605, 609, 318, 608
398, 196, 352, 202, 274, 580, 586, 230, 610, 588, 589
399, 342, 203, 278, 275, 596, 613, 614, 597, 598, 296
400, 204, 201, 273, 351, 236, 591, 615, 616, 593, 594
401, 276, 202, 351, 274, 618, 585, 617, 305, 589, 587
402, 272, 340, 198, 270, 604, 619, 620, 317, 621, 612
403, 278, 342, 206, 203, 614, 622, 623, 613, 596, 224
404, 276, 204, 273, 351, 624, 615, 308, 617, 616, 594
405, 351, 276, 204, 202, 617, 624, 616, 585, 618, 233
406, 200, 340, 198, 272, 600, 619, 245, 603, 604, 620
407, 198, 340, 346, 270, 619, 399, 605, 612, 621, 611
408, 108, 109, 350, 575, 111, 427, 366, 626, 625, 627
409, 345, 346, 109, 197, 401, 428, 359, 628, 606, 629
410, 109, 346, 350, 575, 428, 425, 427, 625, 630, 627
411, 199, 47, 271, 272, 632, 310, 631, 633, 312, 314
412, 269, 197, 1, 575, 607, 209, 634, 636, 635, 637
413, 353, 65, 354, 203, 378, 376, 380, 638, 252, 595
414, 354, 88, 353, 275, 408, 411, 380, 599, 323, 639
415, 344, 273, 92, 343, 590, 331, 416, 392, 640, 419
416, 343, 69, 344, 201, 390, 388, 392, 641, 260, 592
417, 269, 198, 270, 49, 609, 612, 318, 281, 642, 316
418, 198, 24, 200, 272, 244, 240, 245, 620, 643, 603
419, 269, 350, 346, 575, 644, 425, 608, 636, 627, 630
420, 346, 95, 350, 269, 424, 364, 425, 608, 287, 644
421, 342, 87, 354, 275, 406, 409, 377, 597, 324, 599
422, 64, 342, 354, 203, 373, 377, 375, 251, 596, 595
423, 343, 339, 70, 200, 395, 393, 391, 645, 601, 263
424, 272, 343, 339, 93, 646, 395, 602, 336, 418, 421
425, 195, 348, 62, 347, 647, 356, 213, 648, 371, 370
426, 206, 341, 342, 574, 649, 374, 622, 651, 650, 652
427, 342, 341, 278, 574, 374, 653, 614, 652, 650, 654
428, 72, 346, 345, 197, 400, 401, 358, 214, 606, 628
429, 278, 206, 342, 574, 623, 622, 614, 654, 651, 652
430, 272, 339, 340, 94, 602, 398, 604, 335, 420, 423
431, 199, 46, 271, 47, 655, 309, 631, 632, 58, 310
432, 340, 71, 339, 200, 396, 394, 398, 600, 264, 601
433, 341, 278, 86, 342, 653, 322, 402, 374, 614, 407
434, 206, 341, 63, 342, 649, 368, 249, 622, 374, 372
435, 25, 1, 269, 197, 37, 634, 656, 210, 209, 607
436, 48, 270, 198, 49, 315, 612, 657, 60, 316, 642
437, 24, 23, 200, 272, 35, 241, 240, 643, 658, 603
438, 347, 349, 85, 574, 405, 362, 404, 660, 659, 661
439, 196, 275, 268, 42, 662, 299, 584, 663, 295, 297
440, 43, 196, 274, 268, 664, 610, 300, 298, 584, 302
441, 46, 273, 199, 271, 307, 665, 655, 309, 311, 631
442, 197, 346, 109, 575, 606, 428, 629, 635, 630, 625
443, 65, 353, 196, 203, 378, 581, 253, 252, 638, 227
444, 268, 353, 88, 275, 583, 411, 326, 299, 639, 323
445, 271, 92, 273, 343, 334, 331, 311, 666, 419, 640
446, 69, 343, 199, 201, 390, 667, 261, 260, 641, 239
447, 196, 202, 43, 274, 230, 668, 664, 610, 589, 300
448, 46, 199, 273, 201, 655, 665, 307, 669, 239, 591
449, 275, 196, 203, 42, 662, 227, 598, 295, 663, 670
450, 198, 197, 25, 269, 246, 210, 243, 609, 607, 656
451, 199, 23, 272, 200, 237, 658, 633, 242, 241, 603
452, 202, 276, 44, 274, 618, 303, 671, 589, 305, 301
453, 273, 204, 21, 201, 615, 231, 672, 591, 236, 235
454, 48, 272, 198, 270, 313, 620, 657, 315, 317, 612
455, 273, 276, 21, 204, 308, 673, 672, 615, 624, 231
456, 204, 276, 44, 202, 624, 303, 674, 233, 618, 671
457, 343, 70, 199, 200, 391, 262, 667, 645, 263, 242
458, 343, 272, 271, 93, 646, 314, 666, 418, 336, 333
459, 95, 346, 340, 270, 424, 399, 422, 337, 611, 621
460, 346, 197, 269, 575, 606, 607, 608, 630, 635, 636
461, 206, 278, 573, 574, 623, 675, 676, 651, 654, 677
462, 87, 342, 278, 275, 406, 614, 321, 324, 597, 296
463, 342, 64, 206, 203, 373, 250, 622, 596, 251, 224
464, 18, 203, 196, 42, 222, 227, 226, 181, 670, 663
465, 199, 46, 22, 201, 655, 188, 238, 239, 669, 234
466, 3, 345, 109, 197, 357, 359, 112, 215, 628, 629
467, 199, 272, 23, 47, 633, 658, 237, 632, 312, 193
468, 272, 94, 340, 270, 335, 423, 604, 317, 338, 621
469, 71, 340, 198, 200, 396, 619, 265, 264, 600, 245
470, 198, 269, 25, 49, 609, 656, 243, 642, 281, 175
471, 277, 278, 86, 341, 293, 322, 319, 678, 653, 402
472, 2, 269, 1, 575, 282, 634, 38, 679, 636, 637
473, 206, 205, 63, 341, 221, 248, 249, 649, 680, 368
474, 346, 270, 95, 269, 611, 337, 424, 608, 318, 287
475, 21, 276, 273, 45, 673, 308, 672, 189, 304, 306
476, 198, 48, 24, 272, 657, 192, 244, 620, 313, 643
477, 42, 196, 43, 268, 663, 664, 54, 297, 584, 298
478, 43, 202, 44, 274, 668, 671, 55, 300, 589, 301
479, 17, 275, 203, 42, 681, 598, 223, 180, 295, 670
480, 46, 273, 21, 201, 307, 672, 187, 669, 591, 235
481, 44, 21, 276, 204, 185, 673, 303, 674, 231, 624
482, 85, 349, 267, 574, 362, 682, 284, 661, 659, 683
483, 277, 278, 341, 574, 293, 653, 678, 684, 654, 650
484, 206, 205, 341, 574, 221, 680, 649, 651, 685, 650
485, 341, 347, 85, 574, 369, 404, 403, 650, 660, 661
486, 195, 62, 205, 347, 213, 247, 218, 648, 370, 686
487, 72, 340, 346, 198, 397, 399, 400, 266, 619, 605
488, 39, 16, 40, 574, 176, 179, 51, 688, 687, 689
489, 205, 347, 62, 341, 686, 370, 247, 680, 369, 367
490, 72, 198, 346, 197, 266, 605, 400, 214, 246, 606
491, 21, 44, 276, 45, 185, 303, 673, 189, 56, 304
492, 22, 23, 46, 199, 34, 190, 188, 238, 237, 655
493, 46, 199, 23, 47, 655, 237, 190, 58, 632, 193
494, 196, 19, 18, 42, 225, 30, 226, 663, 182, 181
495, 272, 23, 48, 24, 658, 191, 313, 643, 35, 192
496, 272, 48, 23, 47, 313, 191, 658, 312, 59, 193
497, 195, 348, 347, 575, 647, 371, 648, 691, 690, 692
498, 21, 273, 46, 45, 672, 307, 187, 189, 306, 57
499, 2, 25, 269, 49, 173, 656, 282, 61, 175, 281
500, 21, 22, 46, 201, 33, 188, 187, 235, 234, 669
501, 203, 18, 17, 42, 222, 29, 223, 670, 181, 180
502, 25, 269, 1, 2, 656, 634, 37, 173, 282, 38
503, 48, 198, 25, 49, 657, 243, 194, 60, 642, 175
504, 198, 25, 24, 48, 243, 36, 244, 657, 194, 192
505, 15, 2, 1, 575, 172, 38, 26, 693, 679, 637
506, 277, 40, 278, 574, 289, 291, 293, 684, 689, 654
507, 15, 1, 195, 575, 26, 208, 207, 693, 637, 691
508, 3, 197, 109, 575, 215, 629, 112, 694, 635, 625
509, 278, 40, 573, 574, 291, 576, 675, 654, 689, 677
510, 196, 43, 202, 19, 664, 668, 230, 225, 183, 229
511, 20, 204, 44, 202, 232, 674, 186, 228, 233, 671
512, 353, 196, 66, 65, 581, 254, 379, 378, 253, 77
513, 343, 69, 199, 70, 390, 261, 667, 391, 81, 262
514, 343, 271, 92, 93, 666, 334, 419, 418, 333, 104
515, 353, 88, 89, 268, 411, 100, 410, 583, 326, 325
516, 108, 349, 109, 575, 365, 426, 111, 626, 695, 625
517, 94, 95, 340, 270, 106, 422, 423, 338, 337, 621
518, 89, 352, 274, 90, 413, 588, 328, 101, 412, 327
519, 67, 202, 66, 352, 256, 255, 78, 382, 586, 381
520, 64, 354, 65, 203, 375, 376, 76, 251, 595, 252
521, 91, 273, 92, 344, 332, 331, 103, 417, 590, 416
522, 344, 201, 69, 68, 592, 260, 388, 387, 259, 80
523, 354, 87, 88, 275, 409, 99, 408, 599, 324, 323
524, 347, 348, 109, 575, 371, 360, 429, 692, 690, 625
525, 16, 39, 15, 574, 176, 174, 27, 687, 688, 696
526, 340, 198, 72, 71, 619, 266, 397, 396, 265, 83
527, 277, 86, 85, 341, 319, 97, 320, 678, 402, 403
528, 62, 63, 205, 341, 74, 248, 247, 367, 368, 680
529, 85, 277, 341, 574, 320, 678, 403, 661, 684, 650
530, 351, 91, 276, 90, 415, 329, 617, 414, 102, 330
531, 68, 204, 67, 351, 258, 257, 79, 384, 616, 385
532, 21, 44, 20, 204, 185, 186, 32, 231, 674, 232
533, 42, 43, 196, 19, 54, 664, 663, 182, 183, 225
534, 86, 342, 278, 87, 407, 614, 322, 98, 406, 321
535, 206, 342, 63, 64, 622, 372, 249, 250, 373, 75
536, 17, 41, 275, 42, 178, 294, 681, 180, 53, 295
537, 202, 20, 19, 43, 228, 31, 229, 668, 184, 183
538, 43, 44, 202, 20, 55, 671, 668, 184, 186, 228
539, 39, 2, 15, 575, 50, 172, 174, 697, 679, 693
540, 3, 62, 195, 348, 73, 213, 212, 355, 356, 647
541, 339, 94, 272, 93, 420, 335, 602, 421, 105, 336
542, 71, 70, 339, 200, 82, 393, 394, 264, 263, 601
543, 205, 195, 347, 574, 218, 648, 686, 685, 698, 660
544, 1, 197, 195, 575, 209, 211, 208, 637, 635, 691
545, 195, 347, 574, 575, 648, 660, 698, 691, 692, 699
546, 267, 2, 39, 575, 279, 50, 280, 700, 679, 697
547, 15, 195, 574, 575, 207, 698, 696, 693, 691, 699
548, 267, 39, 574, 575, 280, 688, 683, 700, 697, 699
549, 205, 347, 341, 574, 686, 369, 680, 685, 660, 650
550, 85, 267, 277, 574, 284, 290, 320, 661, 683, 684
551, 205, 206, 16, 574, 221, 220, 216, 685, 651, 687
552, 3, 72, 345, 197, 84, 358, 357, 215, 214, 628
553, 16, 206, 573, 574, 220, 676, 578, 687, 651, 677
554, 573, 40, 16, 574, 576, 179, 578, 677, 689, 687
555, 109, 349, 347, 575, 426, 405, 429, 625, 695, 692
556, 267, 85, 4, 349, 284, 96, 285, 682, 362, 361
557, 195, 197, 3, 575, 211, 215, 212, 691, 635, 694
558, 4, 269, 267, 575, 286, 283, 285, 701, 636, 700
559, 574, 39, 15, 575, 688, 174, 696, 699, 697, 693
560, 278, 40, 41, 573, 291, 52, 292, 675, 576, 577
561, 39, 40, 277, 574, 51, 289, 288, 688, 689, 684
562, 350, 95, 4, 269, 364, 107, 363, 644, 287, 286
563, 267, 269, 2, 575, 283, 282, 279, 700, 636, 679
564, 17, 16, 206, 573, 28, 220, 219, 579, 578, 676
565, 205, 16, 15, 574, 216, 27, 217, 685, 687, 696
566, 15, 195, 205, 574, 207, 218, 217, 696, 698, 685
567, 267, 39, 277, 574, 280, 288, 290, 683, 688, 684
568, 275, 573, 41, 17, 702, 577, 294, 681, 579, 178
569, 41, 573, 275, 278, 577, 702, 294, 292, 675, 296
570, 275, 203, 573, 17, 598, 703, 702, 681, 223, 579
571, 573, 203, 275, 278, 703, 598, 702, 675, 613, 296
572, 203, 206, 573, 17, 224, 676, 703, 223, 219, 579
573, 573, 206, 203, 278, 676, 224, 703, 675, 623, 613
574, 343, 272, 199, 271, 646, 633, 667, 666, 314, 631
575, 272, 343, 200, 339, 646, 645, 603, 602, 395, 601
576, 343, 272, 200, 199, 646, 603, 645, 667, 633, 242
577, 273, 343, 199, 271, 640, 667, 665, 311, 666, 631
578, 273, 343, 201, 199, 640, 641, 591, 665, 667, 239
579, 343, 273, 201, 344, 640, 591, 641, 392, 590, 592
580, 196, 275, 353, 268, 662, 639, 581, 584, 299, 583
581, 275, 353, 203, 196, 639, 638, 598, 662, 581, 227
582, 353, 275, 203, 354, 639, 598, 638, 380, 599, 595
583, 89, 352, 268, 274, 413, 582, 325, 328, 588, 302
584, 352, 89, 268, 353, 413, 325, 582, 383, 410, 583
585, 66, 196, 352, 202, 254, 580, 381, 255, 230, 586
586, 196, 66, 352, 353, 254, 381, 580, 581, 379, 383
587, 90, 274, 351, 352, 327, 587, 414, 412, 588, 386
588, 351, 274, 90, 276, 587, 327, 414, 617, 305, 330
589, 67, 202, 351, 204, 256, 585, 385, 257, 233, 616
590, 202, 67, 351, 352, 256, 385, 585, 586, 382, 386
591, 68, 351, 201, 204, 384, 593, 259, 258, 616, 236
592, 201, 351, 68, 344, 593, 384, 259, 592, 389, 387
593, 91, 351, 273, 344, 415, 594, 332, 417, 389, 590
594, 273, 351, 91, 276, 594, 415, 332, 308, 617, 329
595, 4, 575, 350, 269, 701, 627, 363, 286, 636, 644
596, 350, 575, 4, 108, 627, 701, 363, 366, 626, 110
597, 575, 574, 349, 347, 699, 659, 695, 692, 660, 405
598, 349, 574, 575, 267, 659, 699, 695, 682, 683, 700
599, 349, 575, 4, 267, 695, 701, 361, 682, 700, 285
600, 4, 575, 349, 108, 701, 695, 361, 110, 626, 365
601, 348, 575, 3, 109, 690, 694, 355, 360, 625, 112
602, 3, 575, 348, 195, 694, 690, 355, 212, 691, 647
603, 434, 7, 5, 439, 705, 114, 704, 706, 441, 440
604, 6, 434, 5, 10, 436, 704, 113, 121, 437, 432
605, 12, 7, 8, 434, 433, 115, 123, 438, 705, 435
606, 6, 8, 5, 434, 116, 430, 113, 436, 435, 704
607, 434, 8, 5, 7, 435, 430, 704, 705, 115, 114
608, 439, 9, 12, 11, 442, 431, 707, 443, 118, 119
609, 439, 7, 12, 434, 441, 433, 707, 706, 705, 438
610, 12, 7, 439, 11, 433, 441, 707, 119, 124, 443
611, 10, 12, 439, 9, 120, 707, 708, 117, 431, 442
612, 439, 12, 10, 434, 707, 120, 708, 706, 438, 437
613, 439, 5, 10, 9, 440, 432, 708, 442, 122, 117
614, 10, 5, 439, 434, 432, 440, 708, 437, 704, 706
615, 523, 154, 526, 711, 549, 551, 553, 713, 712, 714
616, 154, 155, 526, 711, 166, 552, 551, 712, 715, 714
617, 523, 470, 153, 710, 717, 716, 548, 719, 718, 720
618, 153, 470, 129, 710, 716, 496, 457, 720, 718, 721
619, 474, 149, 527, 709, 723, 532, 722, 725, 724, 726
620, 523, 130, 470, 710, 727, 495, 717, 719, 728, 718
621, 473, 155, 131, 711, 729, 459, 498, 730, 715, 731
622, 153, 129, 154, 710, 457, 455, 165, 720, 721, 732
623, 477, 523, 153, 530, 734, 548, 733, 735, 550, 546
624, 529, 472, 476, 471, 737, 488, 736, 738, 519, 491
625, 524, 523, 477, 530, 570, 734, 739, 547, 550, 735
626, 159, 475, 521, 528, 741, 740, 533, 560, 742, 562
627, 127, 471, 529, 476, 490, 738, 743, 486, 491, 736
628, 473, 526, 155, 711, 744, 552, 729, 730, 714, 715
629, 130, 523, 154, 710, 727, 549, 456, 728, 719, 732
630, 471, 467, 470, 520, 516, 518, 517, 745, 434, 746
631, 471, 472, 467, 520, 519, 514, 516, 745, 747, 434
632, 470, 520, 523, 524, 746, 569, 717, 748, 571, 570
633, 472, 471, 525, 520, 519, 749, 750, 747, 745, 566
634, 468, 467, 472, 520, 512, 514, 513, 751, 434, 747
635, 525, 520, 471, 524, 566, 745, 749, 572, 571, 752
636, 468, 472, 521, 520, 513, 753, 754, 751, 747, 563
637, 471, 520, 470, 524, 745, 746, 517, 752, 571, 748
638, 521, 472, 525, 520, 753, 750, 567, 563, 747, 566
639, 14, 149, 527, 474, 160, 532, 531, 755, 723, 722
640, 126, 529, 476, 127, 756, 736, 487, 138, 743, 486
641, 524, 477, 152, 530, 739, 757, 543, 547, 735, 545
642, 477, 530, 153, 152, 735, 546, 733, 757, 545, 164
643, 475, 159, 158, 528, 741, 170, 758, 742, 560, 559
644, 14, 527, 468, 474, 531, 759, 760, 755, 722, 482
645, 529, 126, 476, 472, 756, 487, 736, 737, 483, 488
646, 129, 130, 154, 710, 141, 456, 455, 721, 728, 732
647, 474, 125, 149, 709, 478, 446, 723, 725, 761, 724
648, 525, 472, 529, 471, 750, 737, 541, 749, 519, 738
649, 153, 477, 470, 523, 733, 497, 716, 548, 734, 717
650, 159, 521, 475, 468, 533, 740, 741, 762, 754, 509
651, 525, 471, 529, 524, 749, 738, 541, 572, 752, 544
652, 524, 477, 523, 470, 739, 734, 570, 748, 497, 717
653, 477, 470, 524, 471, 497, 748, 739, 494, 517, 752
654, 127, 529, 471, 524, 743, 738, 490, 763, 544, 752
655, 473, 130, 470, 523, 499, 495, 500, 764, 727, 717
656, 153, 154, 523, 710, 165, 549, 548, 720, 732, 719
657, 14, 468, 521, 159, 760, 754, 534, 171, 762, 533
658, 127, 471, 128, 524, 490, 489, 139, 763, 752, 765
659, 527, 149, 525, 709, 532, 536, 538, 726, 724, 766
660, 521, 475, 522, 528, 740, 767, 564, 562, 742, 561
661, 522, 133, 156, 157, 768, 462, 555, 556, 465, 168
662, 159, 468, 475, 135, 762, 509, 741, 447, 481, 506
663, 470, 129, 477, 153, 496, 492, 497, 716, 457, 733
664, 477, 128, 471, 524, 493, 489, 494, 739, 765, 752
665, 14, 468, 13, 474, 760, 480, 148, 755, 482, 479
666, 468, 14, 521, 527, 760, 534, 754, 759, 531, 535
667, 529, 525, 150, 472, 541, 537, 539, 737, 750, 769
668, 529, 524, 127, 151, 544, 763, 743, 540, 542, 451
669, 468, 521, 469, 520, 754, 770, 511, 751, 563, 771
670, 473, 523, 470, 520, 764, 717, 500, 772, 569, 746
671, 469, 467, 468, 520, 510, 512, 511, 771, 434, 751
672, 473, 470, 467, 520, 500, 518, 515, 772, 746, 434
673, 130, 129, 470, 710, 141, 496, 495, 728, 721, 718
674, 524, 151, 128, 127, 542, 452, 765, 763, 451, 139
675, 468, 14, 135, 159, 760, 445, 481, 762, 171, 447
676, 468, 13, 135, 14, 480, 147, 481, 760, 148, 445
677, 522, 475, 158, 528, 767, 758, 558, 561, 742, 559
678, 469, 468, 475, 521, 511, 509, 508, 770, 754, 740
679, 474, 14, 125, 13, 755, 444, 478, 479, 148, 136
680, 149, 14, 125, 474, 160, 444, 446, 723, 755, 478
681, 529, 127, 126, 151, 743, 138, 756, 540, 451, 450
682, 475, 135, 158, 159, 506, 466, 758, 741, 447, 170
683, 477, 153, 129, 152, 733, 457, 492, 757, 164, 453
684, 524, 152, 477, 128, 543, 757, 739, 765, 454, 493
685, 475, 158, 135, 134, 758, 466, 506, 507, 464, 146
686, 150, 126, 529, 472, 449, 756, 539, 769, 483, 737
687, 152, 151, 128, 524, 163, 452, 454, 543, 542, 765
688, 125, 126, 150, 472, 137, 449, 448, 484, 483, 769
689, 133, 132, 469, 522, 144, 503, 502, 768, 773, 774
690, 522, 156, 133, 132, 555, 462, 768, 773, 461, 144
691, 134, 475, 158, 522, 507, 758, 464, 775, 767, 558
692, 126, 150, 529, 151, 449, 539, 756, 450, 162, 540
693, 477, 129, 128, 152, 492, 140, 493, 757, 453, 454
694, 469, 521, 522, 520, 770, 564, 774, 771, 563, 565
695, 523, 473, 526, 520, 764, 744, 553, 569, 772, 568
696, 467, 469, 473, 520, 510, 504, 515, 434, 771, 772
697, 522, 132, 469, 473, 773, 503, 774, 776, 501, 504
698, 132, 156, 526, 522, 461, 554, 777, 773, 555, 557
699, 526, 473, 132, 522, 744, 501, 777, 557, 776, 773
700, 522, 158, 133, 157, 558, 463, 768, 556, 169, 465
701, 522, 133, 158, 134, 768, 463, 558, 775, 145, 464
702, 472, 125, 474, 709, 484, 478, 485, 778, 761, 725
703, 475, 134, 469, 522, 507, 505, 508, 767, 775, 774
704, 521, 522, 475, 469, 564, 767, 740, 770, 774, 508
705, 134, 133, 469, 522, 145, 502, 505, 775, 768, 774
706, 523, 526, 473, 711, 553, 744, 764, 713, 714, 730
707, 522, 473, 469, 520, 776, 504, 774, 565, 772, 771
708, 473, 522, 526, 520, 776, 557, 744, 772, 565, 568
709, 132, 155, 131, 473, 460, 459, 143, 501, 729, 498
710, 154, 131, 155, 711, 458, 459, 166, 712, 731, 715
711, 155, 156, 526, 132, 167, 554, 552, 460, 461, 777
712, 155, 132, 526, 473, 460, 777, 552, 729, 501, 744
713, 150, 149, 709, 525, 161, 724, 779, 537, 536, 766
714, 709, 149, 150, 125, 724, 161, 779, 761, 446, 448
715, 709, 472, 150, 525, 778, 769, 779, 766, 750, 537
716, 150, 472, 709, 125, 769, 778, 779, 448, 484, 761
717, 468, 709, 474, 527, 780, 725, 482, 759, 726, 722
718, 474, 709, 468, 472, 725, 780, 482, 485, 778, 513
719, 468, 521, 709, 527, 754, 781, 780, 759, 535, 726
720, 709, 521, 468, 472, 781, 754, 780, 778, 753, 513
721, 521, 525, 709, 527, 567, 766, 781, 535, 538, 726
722, 709, 525, 521, 472, 766, 567, 781, 778, 750, 753
723, 130, 711, 473, 131, 782, 730, 499, 142, 731, 498
724, 711, 130, 473, 523, 782, 499, 730, 713, 727, 764
725, 711, 130, 154, 131, 782, 456, 712, 731, 142, 458
726, 130, 711, 154, 523, 782, 712, 456, 727, 713, 549

** Define element set Eall
*ELSET, ELSET=Eall
Evolumes



***********************************************************
** Element sets for materials and FEM element type (solid, shell, beam, fluid)
*ELSET,ELSET=FEMPart002_MaterialSolid
Evolumes

** Physical constants for SI(mm) unit system with Kelvins
*PHYSICAL CONSTANTS, ABSOLUTE ZERO=0, STEFAN BOLTZMANN=5.670374419e-11

***********************************************************
** Materials
** see information about units at file end
** FreeCAD material name: CalculiX-Steel
** Material (FEMPart (LongPendulum001))
*MATERIAL, NAME=FEMPart002_Material
*ELASTIC
210000,0.3
*DENSITY
7.9E-09
*EXPANSION, ZERO=0
1.2E-05

***********************************************************
** Sections
*SOLID SECTION, ELSET=FEMPart002_MaterialSolid, MATERIAL=FEMPart002_Material

***********************************************************
** At least one step is needed to run an CalculiX analysis of FreeCAD
*STEP, INC=2000
*STATIC
1.0,1.0,1e-05,1.0

***********************************************************
** Automatic 3-2-1 constraints
** nodeXYZ 167: x=-19.7989898732, y=-5, z=28.2010101268
** nodeYZ 164: x=19.7989898732, y=-5, z=28.2010101268
** nodeZ 140: x=19.7989898732, y=5, z=28.2010101268
*BOUNDARY
167,1,1,0
167,2,2,0
167,3,3,0
164,2,2,0
164,3,3,0
140,3,3,0

***********************************************************
** MbDPart D'Alembert element loads
*DLOAD
15,GRAV,15818673.36926,0.5874001048395,-1.306268716851E-17,-0.8092966803556
16,GRAV,15472602.26782,0.5523734472508,-1.347514016723E-17,-0.8335967698907
17,GRAV,14854125.08351,0.5286952822772,-1.373422849197E-17,-0.8488116979035
18,GRAV,14106275.89438,0.5244209248243,-1.377965877382E-17,-0.8514591555715
19,GRAV,13425000.21239,0.543889363721,-1.357058237641E-17,-0.8391569340899
20,GRAV,13015437.93114,0.5832512899592,-1.311470962177E-17,-0.8122917780951
21,GRAV,13015437.93251,0.629153500397,-1.252240832534E-17,-0.7772810771775
22,GRAV,13425000.21602,0.6654706840663,-1.200175218355E-17,-0.7464239871871
23,GRAV,14106275.89911,0.6824829561546,-1.174009803911E-17,-0.7309015081107
24,GRAV,14854125.088,0.6787994863293,-1.179735195007E-17,-0.7343236734296
25,GRAV,15472602.27098,0.6578650267247,-1.211392469084E-17,-0.7531358487103
26,GRAV,15818673.37039,0.6251679604028,-1.257534789692E-17,-0.7804902441965
27,GRAV,15914877.57243,0.6064550938808,-1.282259716781E-17,-0.7951177391468
28,GRAV,15818673.36926,0.5874001048395,-1.306268716851E-17,-0.8092966803556
29,GRAV,15472602.26782,0.5523734472508,-1.347514016723E-17,-0.8335967698907
30,GRAV,14854125.08351,0.5286952822772,-1.373422849197E-17,-0.8488116979035
31,GRAV,14106275.89438,0.5244209248243,-1.377965877382E-17,-0.8514591555715
32,GRAV,13425000.21239,0.543889363721,-1.357058237641E-17,-0.8391569340899
33,GRAV,13015437.93114,0.5832512899592,-1.311470962177E-17,-0.8122917780951
34,GRAV,13015437.93251,0.629153500397,-1.252240832534E-17,-0.7772810771775
35,GRAV,13425000.21602,0.6654706840663,-1.200175218355E-17,-0.7464239871871
36,GRAV,14106275.89911,0.6824829561546,-1.174009803911E-17,-0.7309015081107
37,GRAV,14854125.088,0.6787994863293,-1.179735195007E-17,-0.7343236734296
38,GRAV,15472602.27098,0.6578650267247,-1.211392469084E-17,-0.7531358487103
39,GRAV,15818673.37039,0.6251679604028,-1.257534789692E-17,-0.7804902441965
40,GRAV,14973706.50275,0.5984447321414,-1.292528710992E-17,-0.8011640921636
41,GRAV,14828360.79748,0.5842076274208,-1.310218299702E-17,-0.8116042434977
42,GRAV,14573185.25113,0.5754062558111,-1.320848385932E-17,-0.8178677403917
43,GRAV,14272859.67872,0.5747432752641,-1.321652244848E-17,-0.8183337751423
44,GRAV,14007568.23457,0.5828895788084,-1.311860334551E-17,-0.8125513761705
45,GRAV,13852088.8454,0.5977934516951,-1.293401887735E-17,-0.8016501662885
46,GRAV,13852088.84591,0.6150453586846,-1.271140809726E-17,-0.7884917290375
47,GRAV,14007568.23596,0.6294995035105,-1.251717002548E-17,-0.7770008848643
48,GRAV,14272859.68059,0.6372301678087,-1.241021993932E-17,-0.7706735451762
49,GRAV,14573185.25296,0.6366054125984,-1.241879770813E-17,-0.7711896969297
50,GRAV,14828360.7988,0.6282375582837,-1.253404074698E-17,-0.7780215744835
51,GRAV,14973706.50322,0.6144043710157,-1.27193511713E-17,-0.788991298353
52,GRAV,14973706.50275,0.5984447321414,-1.292528710992E-17,-0.8011640921636
53,GRAV,14828360.79748,0.5842076274208,-1.310218299702E-17,-0.8116042434977
54,GRAV,14573185.25113,0.5754062558111,-1.320848385932E-17,-0.8178677403917
55,GRAV,14272859.67872,0.5747432752641,-1.321652244848E-17,-0.8183337751423
56,GRAV,14007568.23457,0.5828895788084,-1.311860334551E-17,-0.8125513761705
57,GRAV,13852088.8454,0.5977934516951,-1.293401887735E-17,-0.8016501662885
58,GRAV,13852088.84591,0.6150453586846,-1.271140809726E-17,-0.7884917290375
59,GRAV,14007568.23596,0.6294995035105,-1.251717002548E-17,-0.7770008848643
60,GRAV,14272859.68059,0.6372301678087,-1.241021993932E-17,-0.7706735451762
61,GRAV,14573185.25296,0.6366054125984,-1.241879770813E-17,-0.7711896969297
62,GRAV,14828360.7988,0.6282375582837,-1.253404074698E-17,-0.7780215744835
63,GRAV,14973706.50322,0.6144043710157,-1.27193511713E-17,-0.788991298353
64,GRAV,15013218.84951,0.6064550939522,-1.282294826676E-17,-0.7951177390924
65,GRAV,15013218.84951,0.6064550939522,-1.282294826676E-17,-0.7951177390924
66,GRAV,15013218.84951,0.6064550939522,-1.282294826676E-17,-0.7951177390924
67,GRAV,8559580.097894,0.640769416213,-1.236495165673E-17,-0.7677333881277
68,GRAV,13515676.80676,0.6283224027831,-1.253349288924E-17,-0.7779530565278
69,GRAV,8559580.097894,0.640769416213,-1.236495165673E-17,-0.7677333881277
70,GRAV,3611800.761769,0.6858716528533,-1.170578109443E-17,-0.7277225266626
71,GRAV,8559580.095806,0.5709719070251,-1.326558704802E-17,-0.8209695983337
72,GRAV,13515676.80543,0.5841191135591,-1.31038720771E-17,-0.8116679500725
73,GRAV,8559580.095806,0.5709719070251,-1.326558704802E-17,-0.8209695983337
74,GRAV,3611800.756821,0.5204590488503,-1.384019030469E-17,-0.8538866309235
75,GRAV,3592208.35925,0.6064550979572,-1.284265132524E-17,-0.7951177360377
76,GRAV,13510454.31132,0.6064550940923,-1.282363757206E-17,-0.7951177389855
77,GRAV,3592208.35925,0.6064550979572,-1.284265132524E-17,-0.7951177360377
78,GRAV,13510454.31132,0.6064550940923,-1.282363757206E-17,-0.7951177389855
79,GRAV,5579990.171825,0.5288074753337,-1.374344835881E-17,-0.8487418064589
80,GRAV,5230441.658127,0.3646748400526,-1.516006786539E-17,-0.9311349317004
81,GRAV,4562071.646002,0.2053282433322,-1.600459292558E-17,-0.9786931656501
82,GRAV,3640735.781782,0.08206327781632,-1.635155962641E-17,-0.9966271210609
83,GRAV,2590354.193344,0.06350278841936,-1.639129983731E-17,-0.9979816610855
84,GRAV,1712064.413232,0.3328574000029,-1.540323889587E-17,-0.9429771743066
85,GRAV,1712064.427846,0.821397610254,-9.099337541541E-18,-0.57035599924
86,GRAV,2590354.219733,0.9456682221454,-5.008237209014E-18,-0.3251332244241
87,GRAV,3640735.80743,0.9394540468369,-5.288178082046E-18,-0.3426749099099
88,GRAV,4562071.66647,0.8895641562788,-7.175523109762E-18,-0.4568102580547
89,GRAV,5230441.671196,0.8015635569746,-9.522654061377E-18,-0.5979095785571
90,GRAV,5579990.176309,0.6787024198782,-1.180927199632E-17,-0.7344133885296
91,GRAV,5696078.712719,0.6064550960127,-1.28330849828E-17,-0.7951177375209
92,GRAV,5579990.171825,0.5288074753337,-1.374344835881E-17,-0.8487418064589
93,GRAV,5230441.658127,0.3646748400526,-1.516006786539E-17,-0.9311349317004
94,GRAV,4562071.646002,0.2053282433322,-1.600459292558E-17,-0.9786931656501
95,GRAV,3640735.781782,0.08206327781632,-1.635155962641E-17,-0.9966271210609
96,GRAV,2590354.193344,0.06350278841936,-1.639129983731E-17,-0.9979816610855
97,GRAV,1712064.413232,0.3328574000029,-1.540323889587E-17,-0.9429771743066
98,GRAV,1712064.427846,0.821397610254,-9.099337541541E-18,-0.57035599924
99,GRAV,2590354.219733,0.9456682221454,-5.008237209014E-18,-0.3251332244241
100,GRAV,3640735.80743,0.9394540468369,-5.288178082046E-18,-0.3426749099099
101,GRAV,4562071.66647,0.8895641562788,-7.175523109762E-18,-0.4568102580547
102,GRAV,5230441.671196,0.8015635569746,-9.522654061377E-18,-0.5979095785571
103,GRAV,5579990.176309,0.6787024198782,-1.180927199632E-17,-0.7344133885296
104,GRAV,15849745.85291,0.5938147657669,-1.298314881728E-17,-0.8046017797377
105,GRAV,15849745.85366,0.6189439750538,-1.265889290265E-17,-0.7854351378342
106,GRAV,15788604.36983,0.5809232694097,-1.314170330084E-17,-0.8139583251361
107,GRAV,15788604.37134,0.6313763140666,-1.24906801049E-17,-0.7754765954145
108,GRAV,15558299.7292,0.5575894533677,-1.341598329555E-17,-0.8301168601427
109,GRAV,14732690.58505,0.5260871211391,-1.376185652917E-17,-0.850430679698
110,GRAV,15387519.89877,0.5470774705271,-1.353441494909E-17,-0.8370819800006
111,GRAV,14975697.29063,0.5312562598654,-1.370692247491E-17,-0.8472111816742
112,GRAV,13978346.09279,0.5256959641614,-1.376631739964E-17,-0.8506725299811
113,GRAV,14234236.78844,0.5231676615171,-1.379273020891E-17,-0.852229780014
114,GRAV,13523679.24121,0.5386418182097,-1.362799385748E-17,-0.8425348608074
115,GRAV,13053185.08894,0.5754953941551,-1.320816354688E-17,-0.8178050203479
116,GRAV,13326851.78158,0.5491927569634,-1.35117826695E-17,-0.8356957075987
117,GRAV,12978876.12079,0.621686002221,-1.262354300313E-17,-0.7832665667845
118,GRAV,12978876.11987,0.5909983234962,-1.301952288558E-17,-0.8066727847304
119,GRAV,13523679.24514,0.6701159574837,-1.193151121786E-17,-0.7422564270693
120,GRAV,13053185.09076,0.6365213549228,-1.242071223825E-17,-0.7712590775656
121,GRAV,13326851.78491,0.6607303083089,-1.207255271463E-17,-0.750623380719
122,GRAV,13978346.09744,0.6813871778586,-1.175734861989E-17,-0.7319231611651
123,GRAV,14975697.29498,0.6765787531464,-1.183174695922E-17,-0.7363702810345
124,GRAV,14234236.79323,0.683557544727,-1.172313192982E-17,-0.7298966249044
125,GRAV,14732690.58968,0.6810505043054,-1.17622793447E-17,-0.7322364444531
126,GRAV,15387519.90223,0.6626265713632,-1.204342178046E-17,-0.748949949545
127,GRAV,15558299.73206,0.6531297399717,-1.218317478713E-17,-0.757246025255
128,GRAV,15669775.28712,0.5892650617126,-1.303975429805E-17,-0.807939779343
129,GRAV,15664586.82781,0.6234415996533,-1.259871495386E-17,-0.7818699200134
130,GRAV,15546468.29522,0.6065266233646,-1.282181263578E-17,-0.7950631768293
131,GRAV,15106474.65655,0.5966325628105,-1.294809500117E-17,-0.8025145388055
132,GRAV,15101272.5943,0.6162622157053,-1.269478030741E-17,-0.7875410348001
133,GRAV,15245915.38882,0.6065280334472,-1.282191241546E-17,-0.7950621011233
134,GRAV,15352317.2881,0.5578992963748,-1.341252697409E-17,-0.829908654675
135,GRAV,15404283.94749,0.5767037826696,-1.319263172816E-17,-0.8169533322379
136,GRAV,14797875.87497,0.5374574135989,-1.364026616615E-17,-0.8432908920222
137,GRAV,15005772.51577,0.553477922554,-1.346287260188E-17,-0.8328638479639
138,GRAV,14135309.0404,0.5337518155665,-1.36805626314E-17,-0.8456411764924
139,GRAV,14457182.3362,0.5426941603771,-1.358324231514E-17,-0.8399303830036
140,GRAV,13525270.16816,0.551087447346,-1.349046397829E-17,-0.8344474970767
141,GRAV,13881002.2513,0.5486204752977,-1.351789236091E-17,-0.8360715125419
142,GRAV,13166066.86401,0.5861997994745,-1.307861095576E-17,-0.8101665230655
143,GRAV,13440954.33376,0.5724367165152,-1.324432296702E-17,-0.8199489042528
144,GRAV,13172184.05316,0.6263840936764,-1.256004771829E-17,-0.7795145715054
145,GRAV,13286270.0502,0.6065248422695,-1.282285369154E-17,-0.795064535563
146,GRAV,13526312.31486,0.658730624711,-1.210203240808E-17,-0.7523788700301
147,GRAV,13448265.99105,0.6391480730188,-1.238378722114E-17,-0.7690837020483
148,GRAV,14131841.49206,0.6746212365232,-1.18623128766E-17,-0.7381640652537
149,GRAV,13878486.85536,0.661177923611,-1.206563213789E-17,-0.7502291338847
150,GRAV,14797153.63293,0.6711952881943,-1.191448691465E-17,-0.7412805711104
151,GRAV,14452944.36735,0.6667823339651,-1.198152706251E-17,-0.7452525203661
152,GRAV,15351462.80919,0.6528610596752,-1.218716095041E-17,-0.7574776807007
153,GRAV,15004183.33586,0.6569171108156,-1.212805013905E-17,-0.7539628038025
154,GRAV,15398258.7356,0.6354734899968,-1.243420453341E-17,-0.772122686826
155,GRAV,14922948.84063,0.5791418968191,-1.316354965151E-17,-0.8152267557856
156,GRAV,15139282.44391,0.5842644315439,-1.310136111448E-17,-0.8115633518294
157,GRAV,14611191.68097,0.5686069747297,-1.328890843973E-17,-0.8226093290796
158,GRAV,14840996.85279,0.5674272649997,-1.330262736011E-17,-0.8234235234282
159,GRAV,14246876.08514,0.5672693481337,-1.330473530791E-17,-0.8235323227828
160,GRAV,14436886.86564,0.5600101637767,-1.338874428875E-17,-0.8284857370328
161,GRAV,13913898.47261,0.5770518193765,-1.318911043089E-17,-0.8167075350174
162,GRAV,14015073.68995,0.564641793896,-1.333545990284E-17,-0.8253360797796
163,GRAV,13723920.40245,0.5958615961511,-1.295841038737E-17,-0.8030871423652
164,GRAV,13695629.72349,0.5820422606358,-1.312904615252E-17,-0.8131585373308
165,GRAV,13730025.04098,0.617004190219,-1.26855712503E-17,-0.7869598650835
166,GRAV,13586822.95671,0.6065232993958,-1.282271869853E-17,-0.795065712561
167,GRAV,13915106.78651,0.6347589286789,-1.24447669992E-17,-0.7727102318867
168,GRAV,13702992.19087,0.6300666120302,-1.250955272995E-17,-0.7765410899655
169,GRAV,14243244.92262,0.6444348199588,-1.230874730011E-17,-0.7646592462166
170,GRAV,14012582.36029,0.6465850785553,-1.227819865682E-17,-0.7628418815126
171,GRAV,14610442.31279,0.6430134249278,-1.232875465652E-17,-0.7658549049021
172,GRAV,14432549.29215,0.6511665291424,-1.221211615494E-17,-0.758934879502
173,GRAV,14922087.29579,0.6330842511042,-1.246749003091E-17,-0.7740828967261
174,GRAV,14839390.81277,0.6441241820892,-1.231289957688E-17,-0.7649209358149
175,GRAV,15133240.25973,0.6282756062786,-1.253339541138E-17,-0.7779908499174
176,GRAV,15669775.28712,0.5892650617126,-1.303975429805E-17,-0.807939779343
177,GRAV,15664586.82781,0.6234415996533,-1.259871495386E-17,-0.7818699200134
178,GRAV,15546468.29522,0.6065266233646,-1.282181263578E-17,-0.7950631768293
179,GRAV,15106474.65655,0.5966325628105,-1.294809500117E-17,-0.8025145388055
180,GRAV,15101272.5943,0.6162622157053,-1.269478030741E-17,-0.7875410348001
181,GRAV,15245915.38882,0.6065280334472,-1.282191241546E-17,-0.7950621011233
182,GRAV,15352317.2881,0.5578992963748,-1.341252697409E-17,-0.829908654675
183,GRAV,15404283.94749,0.5767037826696,-1.319263172816E-17,-0.8169533322379
184,GRAV,14797875.87497,0.5374574135989,-1.364026616615E-17,-0.8432908920222
185,GRAV,15005772.51577,0.553477922554,-1.346287260188E-17,-0.8328638479639
186,GRAV,14135309.0404,0.5337518155665,-1.36805626314E-17,-0.8456411764924
187,GRAV,14457182.3362,0.5426941603771,-1.358324231514E-17,-0.8399303830036
188,GRAV,13525270.16816,0.551087447346,-1.349046397829E-17,-0.8344474970767
189,GRAV,13881002.2513,0.5486204752977,-1.351789236091E-17,-0.8360715125419
190,GRAV,13166066.86401,0.5861997994745,-1.307861095576E-17,-0.8101665230655
191,GRAV,13440954.33376,0.5724367165152,-1.324432296702E-17,-0.8199489042528
192,GRAV,13172184.05316,0.6263840936764,-1.256004771829E-17,-0.7795145715054
193,GRAV,13286270.0502,0.6065248422695,-1.282285369154E-17,-0.795064535563
194,GRAV,13526312.31486,0.658730624711,-1.210203240808E-17,-0.7523788700301
195,GRAV,13448265.99105,0.6391480730188,-1.238378722114E-17,-0.7690837020483
196,GRAV,14131841.49206,0.6746212365232,-1.18623128766E-17,-0.7381640652537
197,GRAV,13878486.85536,0.661177923611,-1.206563213789E-17,-0.7502291338847
198,GRAV,14797153.63293,0.6711952881943,-1.191448691465E-17,-0.7412805711104
199,GRAV,14452944.36735,0.6667823339651,-1.198152706251E-17,-0.7452525203661
200,GRAV,15351462.80919,0.6528610596752,-1.218716095041E-17,-0.7574776807007
201,GRAV,15004183.33586,0.6569171108156,-1.212805013905E-17,-0.7539628038025
202,GRAV,15398258.7356,0.6354734899968,-1.243420453341E-17,-0.772122686826
203,GRAV,14922948.84063,0.5791418968191,-1.316354965151E-17,-0.8152267557856
204,GRAV,15139282.44391,0.5842644315439,-1.310136111448E-17,-0.8115633518294
205,GRAV,14611191.68097,0.5686069747297,-1.328890843973E-17,-0.8226093290796
206,GRAV,14840996.85279,0.5674272649997,-1.330262736011E-17,-0.8234235234282
207,GRAV,14246876.08514,0.5672693481337,-1.330473530791E-17,-0.8235323227828
208,GRAV,14436886.86564,0.5600101637767,-1.338874428875E-17,-0.8284857370328
209,GRAV,13913898.47261,0.5770518193765,-1.318911043089E-17,-0.8167075350174
210,GRAV,14015073.68995,0.564641793896,-1.333545990284E-17,-0.8253360797796
211,GRAV,13723920.40245,0.5958615961511,-1.295841038737E-17,-0.8030871423652
212,GRAV,13695629.72349,0.5820422606358,-1.312904615252E-17,-0.8131585373308
213,GRAV,13730025.04098,0.617004190219,-1.26855712503E-17,-0.7869598650835
214,GRAV,13586822.95671,0.6065232993958,-1.282271869853E-17,-0.795065712561
215,GRAV,13915106.78651,0.6347589286789,-1.24447669992E-17,-0.7727102318867
216,GRAV,13702992.19087,0.6300666120302,-1.250955272995E-17,-0.7765410899655
217,GRAV,14243244.92262,0.6444348199588,-1.230874730011E-17,-0.7646592462166
218,GRAV,14012582.36029,0.6465850785553,-1.227819865682E-17,-0.7628418815126
219,GRAV,14610442.31279,0.6430134249278,-1.232875465652E-17,-0.7658549049021
220,GRAV,14432549.29215,0.6511665291424,-1.221211615494E-17,-0.758934879502
221,GRAV,14922087.29579,0.6330842511042,-1.246749003091E-17,-0.7740828967261
222,GRAV,14839390.81277,0.6441241820892,-1.231289957688E-17,-0.7649209358149
223,GRAV,15133240.25973,0.6282756062786,-1.253339541138E-17,-0.7779908499174
224,GRAV,14980318.75824,0.5983537683777,-1.292643446896E-17,-0.8012320312295
225,GRAV,14980318.75873,0.6144939449272,-1.271816895409E-17,-0.7889215370668
226,GRAV,15006481.06241,0.6091992306728,-1.278741869448E-17,-0.7930172112557
227,GRAV,15006481.06225,0.6037037146406,-1.285833033986E-17,-0.7972087712319
228,GRAV,14981848.57422,0.5986946932182,-1.292212198649E-17,-0.8009773182259
229,GRAV,14981848.57468,0.614158149215,-1.272258856659E-17,-0.7891829748244
230,GRAV,15008053.51606,0.6040417837498,-1.285399579882E-17,-0.7969526482072
231,GRAV,15008053.51621,0.6088628302524,-1.279178720222E-17,-0.7932755220836
232,GRAV,14827115.02505,0.5836068779043,-1.310950673691E-17,-0.812036336664
233,GRAV,14906803.11723,0.5886293916175,-1.304790604015E-17,-0.808403017884
234,GRAV,14963211.94765,0.5938682698539,-1.298282785805E-17,-0.8045622897332
235,GRAV,14572956.30983,0.5750018672796,-1.321330676831E-17,-0.8181520962663
236,GRAV,14706218.7713,0.5782138418934,-1.317480678731E-17,-0.8158852572776
237,GRAV,14271354.67237,0.5743613733085,-1.322107030862E-17,-0.8186018646761
238,GRAV,14421831.87344,0.5735300342219,-1.323088566617E-17,-0.819184533451
239,GRAV,14002884.99278,0.582601312768,-1.312210930816E-17,-0.8127580884624
240,GRAV,14127550.75046,0.5774287421719,-1.318449098421E-17,-0.816441086493
241,GRAV,13845513.76894,0.5976869979513,-1.293536577961E-17,-0.8017295382359
242,GRAV,13906467.83007,0.5895257213806,-1.303728547591E-17,-0.8077496046614
243,GRAV,13845513.76946,0.6151500544717,-1.271003042178E-17,-0.7884100522466
244,GRAV,13824662.00827,0.6064550940605,-1.282348105676E-17,-0.7951177390098
245,GRAV,14002884.99419,0.6297750827556,-1.25134003844E-17,-0.7767775390291
246,GRAV,13906467.83108,0.6231138860561,-1.260387903889E-17,-0.782131117527
247,GRAV,14271354.67426,0.6375896992827,-1.240520067889E-17,-0.7703761259077
248,GRAV,14127550.75218,0.6346947436993,-1.244555648383E-17,-0.7727629535119
249,GRAV,14572956.31169,0.6369865774356,-1.241348419289E-17,-0.7708748926816
250,GRAV,14421831.87538,0.6383714551259,-1.239420139141E-17,-0.7697284490523
251,GRAV,14827115.02641,0.6288131245549,-1.252618584167E-17,-0.7775564637938
252,GRAV,14706218.77297,0.6339510987883,-1.245559851412E-17,-0.773373133969
253,GRAV,14906803.11829,0.6239810532682,-1.259174423841E-17,-0.7814394699286
254,GRAV,14963211.9484,0.618891742992,-1.265993631465E-17,-0.7854762952861
255,GRAV,14827115.02505,0.5836068779043,-1.310950673691E-17,-0.812036336664
256,GRAV,14906803.11723,0.5886293916175,-1.304790604015E-17,-0.808403017884
257,GRAV,14964706.12589,0.5942114580463,-1.297853558852E-17,-0.8043088605297
258,GRAV,14572956.30983,0.5750018672796,-1.321330676831E-17,-0.8181520962663
259,GRAV,14706218.7713,0.5782138418934,-1.317480678731E-17,-0.8158852572776
260,GRAV,14271354.67237,0.5743613733085,-1.322107030862E-17,-0.8186018646761
261,GRAV,14421831.87344,0.5735300342219,-1.323088566617E-17,-0.819184533451
262,GRAV,14002884.99278,0.582601312768,-1.312210930816E-17,-0.8127580884624
263,GRAV,14127550.75046,0.5774287421719,-1.318449098421E-17,-0.816441086493
264,GRAV,13845513.76894,0.5976869979513,-1.293536577961E-17,-0.8017295382359
265,GRAV,13906467.83007,0.5895257213806,-1.303728547591E-17,-0.8077496046614
266,GRAV,13845513.76946,0.6151500544717,-1.271003042178E-17,-0.7884100522466
267,GRAV,13824662.00827,0.6064550940605,-1.282348105676E-17,-0.7951177390098
268,GRAV,14002884.99419,0.6297750827556,-1.25134003844E-17,-0.7767775390291
269,GRAV,13906467.83108,0.6231138860561,-1.260387903889E-17,-0.782131117527
270,GRAV,14271354.67426,0.6375896992827,-1.240520067889E-17,-0.7703761259077
271,GRAV,14127550.75218,0.6346947436993,-1.244555648383E-17,-0.7727629535119
272,GRAV,14572956.31169,0.6369865774356,-1.241348419289E-17,-0.7708748926816
273,GRAV,14421831.87538,0.6383714551259,-1.239420139141E-17,-0.7697284490523
274,GRAV,14827115.02641,0.6288131245549,-1.252618584167E-17,-0.7775564637938
275,GRAV,14706218.77297,0.6339510987883,-1.245559851412E-17,-0.773373133969
276,GRAV,14906803.11829,0.6239810532682,-1.259174423841E-17,-0.7814394699286
277,GRAV,14964706.12662,0.6185565868994,-1.266439709198E-17,-0.7857402553028
278,GRAV,15008053.51606,0.6040417837498,-1.285399579882E-17,-0.7969526482072
279,GRAV,15008053.51621,0.6088628302524,-1.279178720222E-17,-0.7932755220836
280,GRAV,14988814.0198,0.6136062439208,-1.272984250745E-17,-0.7896121689927
281,GRAV,14990351.00425,0.6132704358318,-1.273425233435E-17,-0.789873010385
282,GRAV,14988814.01937,0.5992545480698,-1.291503027888E-17,-0.8005585466521
283,GRAV,14990351.00384,0.5995949010446,-1.29107152302E-17,-0.8003036640184
284,GRAV,6908513.118359,0.6487969173004,-1.225331379549E-17,-0.7609616022517
285,GRAV,10211285.83679,0.6352982742899,-1.243970751142E-17,-0.7722668597604
286,GRAV,6908513.115772,0.5623184869885,-1.336919222629E-17,-0.8269207454109
287,GRAV,10211285.83503,0.5767907189967,-1.319466245925E-17,-0.8168919552054
288,GRAV,6899426.955456,0.6207872409405,-1.26419000559E-17,-0.783979082301
289,GRAV,10205140.72592,0.5966523003237,-1.295080455071E-17,-0.8024998644975
290,GRAV,6899426.955456,0.6207872409405,-1.26419000559E-17,-0.783979082301
291,GRAV,10205140.72592,0.5966523003237,-1.295080455071E-17,-0.8024998644975
292,GRAV,3600929.254881,0.6602903569243,-1.209793068611E-17,-0.7510104157418
293,GRAV,3592208.35925,0.6064550979572,-1.284265132524E-17,-0.7951177360377
294,GRAV,3592208.35925,0.6064550979572,-1.284265132524E-17,-0.7951177360377
295,GRAV,3600929.251573,0.5496823579508,-1.352516613276E-17,-0.8353737518965
296,GRAV,13512775.66974,0.6210885044122,-1.263126738573E-17,-0.7837404351487
297,GRAV,13510454.31132,0.6064550940923,-1.282363757206E-17,-0.7951177389855
298,GRAV,13510454.31132,0.6064550940923,-1.282363757206E-17,-0.7951177389855
299,GRAV,13512775.66885,0.5916133180878,-1.301160181633E-17,-0.8062218564769
300,GRAV,5613086.61584,0.555600250702,-1.344921794533E-17,-0.8314495543447
301,GRAV,5613086.618812,0.6549409966803,-1.216737002656E-17,-0.7556800188356
302,GRAV,5552632.621898,0.5011764488708,-1.402667772196E-17,-0.865345114447
303,GRAV,5552632.627906,0.7020210750026,-1.143506978227E-17,-0.7121561698477
304,GRAV,5144743.030719,0.3357846253092,-1.534881005387E-17,-0.9419387906897
305,GRAV,5320953.747344,0.3922784219509,-1.496386197523E-17,-0.9198465304993
306,GRAV,4425590.634814,0.179195120829,-1.609932370968E-17,-0.9838135538155
307,GRAV,4701598.950881,0.2297941778533,-1.590505352073E-17,-0.9732392490157
308,GRAV,3814117.462788,0.09641635023675,-1.632376452202E-17,-0.9953410909869
309,GRAV,2768567.080108,0.05066910169547,-1.640597313901E-17,-0.9987154960915
310,GRAV,3468185.664135,0.06625889180978,-1.637820653754E-17,-0.9978024650481
311,GRAV,1620679.884442,0.4200617325736,-1.479037115154E-17,-0.9074955321252
312,GRAV,2412632.539829,0.07821689316303,-1.637112437722E-17,-0.996936365885
313,GRAV,1817034.831155,0.2525879033118,-1.583470873656E-17,-0.9675739512309
314,GRAV,1620679.894734,0.7641199337605,-1.035080011978E-17,-0.6450742025766
315,GRAV,2412632.565631,0.9407693644836,-5.241138505399E-18,-0.3390471985566
316,GRAV,1817034.849515,0.866344113255,-7.915076917199E-18,-0.4994475722519
317,GRAV,3468185.690414,0.9447666220198,-5.042341300389E-18,-0.3277438480237
318,GRAV,2768567.107004,0.9497694772323,-4.80438971583E-18,-0.3129503796418
319,GRAV,4701598.970266,0.8778349732056,-7.543029083832E-18,-0.4789632134278
320,GRAV,3814117.487856,0.9344184880477,-5.510565083921E-18,-0.3561770475405
321,GRAV,4425590.656418,0.9014125275825,-6.780157926616E-18,-0.4329612628369
322,GRAV,5144743.045192,0.819622146492,-9.105590178098E-18,-0.5729044745678
323,GRAV,5320953.759043,0.7833778889903,-9.917291879338E-18,-0.6215457207971
324,GRAV,5401104.826032,0.5335515667165,-1.369335757206E-17,-0.8457675364155
325,GRAV,5270265.335312,0.6713694990705,-1.192319621121E-17,-0.7411227939537
326,GRAV,5123249.016978,0.6011041854357,-1.29034919424E-17,-0.7991706690386
327,GRAV,4957973.78933,0.3931747676918,-1.49585145866E-17,-0.9194637578777
328,GRAV,4989755.088544,0.4825966647888,-1.420801767987E-17,-0.8758427136962
329,GRAV,4446372.082047,0.2356155599841,-1.588108645322E-17,-0.9718463396512
330,GRAV,4531479.634097,0.343555521076,-1.530220401301E-17,-0.9391323676342
331,GRAV,3558175.833695,0.1656938540004,-1.614844170177E-17,-0.9861772390126
332,GRAV,3936489.199564,0.2494870843565,-1.582153265603E-17,-0.9683781259091
333,GRAV,2631967.314621,0.1308449297823,-1.62568277269E-17,-0.9914028466523
334,GRAV,3087960.949128,0.21234772816,-1.598702305211E-17,-0.9771941681904
335,GRAV,1983410.961,0.4127892619053,-1.483734424763E-17,-0.9108265615669
336,GRAV,2418091.605732,0.3112277135258,-1.551646896309E-17,-0.9503353672959
337,GRAV,2115928.138199,0.8091591396641,-9.376530535761E-18,-0.5875895563214
338,GRAV,2289374.330675,0.6614401526222,-1.209567246641E-17,-0.7499979496632
339,GRAV,2669852.364668,0.901801157174,-6.78053808624E-18,-0.4321512153398
340,GRAV,3725434.273155,0.8971188509113,-6.930655882832E-18,-0.4417892793399
341,GRAV,3309774.558709,0.8559425619778,-8.185239229211E-18,-0.5170709144739
342,GRAV,4364516.064962,0.8632018353494,-7.975217265277E-18,-0.5048589817459
343,GRAV,5072540.709034,0.7910526098224,-9.75438592069E-18,-0.6117481250426
344,GRAV,4578454.81083,0.808417862689,-9.36989831411E-18,-0.5886090037414
345,GRAV,4964935.474348,0.7259810408127,-1.102667211358E-17,-0.6877147143841
346,GRAV,4061218.041366,0.6898552336932,-1.163943492346E-17,-0.7239473437662
347,GRAV,4202695.273414,0.5752120763968,-1.322655398578E-17,-0.818004319773
348,GRAV,3482835.604321,0.7358155278802,-1.085798783652E-17,-0.677182035298
349,GRAV,3178853.075758,0.4892876728525,-1.415500330344E-17,-0.8721224530963
350,GRAV,2989306.156217,0.648841225602,-1.227033333307E-17,-0.7609238227045
351,GRAV,3803742.237593,0.4717200887947,-1.431494798056E-17,-0.8817483528919
352,GRAV,4458941.96805,0.7385400243171,-1.080230517121E-17,-0.6742096354115
353,GRAV,4687579.651785,0.5559111188771,-1.344896000534E-17,-0.8312417385507
354,GRAV,2907820.127143,0.3658819970808,-1.516603678463E-17,-0.9306612510533
355,GRAV,4032372.775491,0.3698278147777,-1.512997488611E-17,-0.9291003107398
356,GRAV,5401104.826032,0.5335515667165,-1.369335757206E-17,-0.8457675364155
357,GRAV,5270265.335312,0.6713694990705,-1.192319621121E-17,-0.7411227939537
358,GRAV,5123249.016978,0.6011041854357,-1.29034919424E-17,-0.7991706690386
359,GRAV,4957973.78933,0.3931747676918,-1.49585145866E-17,-0.9194637578777
360,GRAV,4989755.088544,0.4825966647888,-1.420801767987E-17,-0.8758427136962
361,GRAV,4446372.082047,0.2356155599841,-1.588108645322E-17,-0.9718463396512
362,GRAV,4531479.634097,0.343555521076,-1.530220401301E-17,-0.9391323676342
363,GRAV,3558175.833695,0.1656938540004,-1.614844170177E-17,-0.9861772390126
364,GRAV,3936489.199564,0.2494870843565,-1.582153265603E-17,-0.9683781259091
365,GRAV,2631967.314621,0.1308449297823,-1.62568277269E-17,-0.9914028466523
366,GRAV,3087960.949128,0.21234772816,-1.598702305211E-17,-0.9771941681904
367,GRAV,1983410.961,0.4127892619053,-1.483734424763E-17,-0.9108265615669
368,GRAV,2418091.605732,0.3112277135258,-1.551646896309E-17,-0.9503353672959
369,GRAV,2115928.138199,0.8091591396641,-9.376530535761E-18,-0.5875895563214
370,GRAV,2289374.330675,0.6614401526222,-1.209567246641E-17,-0.7499979496632
371,GRAV,2669852.364668,0.901801157174,-6.78053808624E-18,-0.4321512153398
372,GRAV,3725434.273155,0.8971188509113,-6.930655882832E-18,-0.4417892793399
373,GRAV,3309774.558709,0.8559425619778,-8.185239229211E-18,-0.5170709144739
374,GRAV,4364516.064962,0.8632018353494,-7.975217265277E-18,-0.5048589817459
375,GRAV,5072540.709034,0.7910526098224,-9.75438592069E-18,-0.6117481250426
376,GRAV,4578454.81083,0.808417862689,-9.36989831411E-18,-0.5886090037414
377,GRAV,4964935.474348,0.7259810408127,-1.102667211358E-17,-0.6877147143841
378,GRAV,4061218.041366,0.6898552336932,-1.163943492346E-17,-0.7239473437662
379,GRAV,4202695.273414,0.5752120763968,-1.322655398578E-17,-0.818004319773
380,GRAV,3482835.604321,0.7358155278802,-1.085798783652E-17,-0.677182035298
381,GRAV,3178853.075758,0.4892876728525,-1.415500330344E-17,-0.8721224530963
382,GRAV,2989306.156217,0.648841225602,-1.227033333307E-17,-0.7609238227045
383,GRAV,3803742.237593,0.4717200887947,-1.431494798056E-17,-0.8817483528919
384,GRAV,4458941.96805,0.7385400243171,-1.080230517121E-17,-0.6742096354115
385,GRAV,4687579.651785,0.5559111188771,-1.344896000534E-17,-0.8312417385507
386,GRAV,2907820.127143,0.3658819970808,-1.516603678463E-17,-0.9306612510533
387,GRAV,4032372.775491,0.3698278147777,-1.512997488611E-17,-0.9291003107398
388,GRAV,14917789.24714,0.534085732314,-1.367662809415E-17,-0.8454303226988
389,GRAV,14735256.25114,0.5302546250411,-1.371770475771E-17,-0.8478384472425
390,GRAV,13818947.69019,0.5775371287974,-1.318333798802E-17,-0.8163644191539
391,GRAV,13649093.56149,0.5992878748449,-1.291521725127E-17,-0.80053359896
392,GRAV,13820765.6181,0.6341502894572,-1.245324651832E-17,-0.7732098100654
393,GRAV,14308206.24081,0.5631329209919,-1.335281428145E-17,-0.8263663311723
394,GRAV,14691696.87853,0.6447752745757,-1.230370540119E-17,-0.7643721902947
395,GRAV,15195107.87481,0.6255054453919,-1.257102055781E-17,-0.780219800944
396,GRAV,13687110.19723,0.5799352443724,-1.315454729179E-17,-0.8146625757544
397,GRAV,15133348.56129,0.6311992032825,-1.249336963597E-17,-0.7756207615681
398,GRAV,13622541.05581,0.5866096385802,-1.307334666901E-17,-0.8098698240611
399,GRAV,14414007.55142,0.5584580830718,-1.340653650454E-17,-0.8295327416394
400,GRAV,13693544.5426,0.6319109587329,-1.248422631492E-17,-0.7750409926148
401,GRAV,13561653.88674,0.6051915522292,-1.283988971188E-17,-0.796079886136
402,GRAV,14932750.71365,0.6426659164434,-1.233353758385E-17,-0.7661465394048
403,GRAV,14537014.86752,0.5591340603113,-1.339874583293E-17,-0.8290772597291
404,GRAV,13632668.07442,0.6257914072107,-1.256784802164E-17,-0.7799904580578
405,GRAV,13566587.11058,0.6124130721807,-1.274614717953E-17,-0.7905379364851
406,GRAV,14826536.15422,0.6459216890709,-1.228731024945E-17,-0.7634036753827
407,GRAV,15000830.4079,0.6337717101478,-1.245795626279E-17,-0.7735201480352
408,GRAV,15095537.21404,0.6063933089982,-1.282371165543E-17,-0.7951648601405
409,GRAV,15080682.29295,0.6152059066142,-1.270874324159E-17,-0.7883664709175
410,GRAV,15082021.2052,0.6096863611389,-1.278105420495E-17,-0.7926427575152
411,GRAV,14386505.36416,0.6648111956078,-1.201118455412E-17,-0.747011428423
412,GRAV,15495777.24241,0.6113257592295,-1.275951730855E-17,-0.7913790596816
413,GRAV,14144028.22646,0.5711235362565,-1.325950587804E-17,-0.8208641217241
414,GRAV,14144028.22646,0.5711235362565,-1.325950587804E-17,-0.8208641217241
415,GRAV,14028447.92876,0.6373254390254,-1.240900374019E-17,-0.7705947604099
416,GRAV,14028447.92876,0.6373254390254,-1.240900374019E-17,-0.7705947604099
417,GRAV,15326387.8941,0.6372164293407,-1.240996358475E-17,-0.7706849046
418,GRAV,14925128.31319,0.6565924913841,-1.21328481242E-17,-0.7542455172277
419,GRAV,15167728.48037,0.6130709879222,-1.273679749889E-17,-0.7900278246796
420,GRAV,15062688.09994,0.6188928905737,-1.265987996857E-17,-0.7854753910832
421,GRAV,14365093.29558,0.5682707484539,-1.329295980302E-17,-0.8228416350985
422,GRAV,14365093.29558,0.5682707484539,-1.329295980302E-17,-0.8228416350985
423,GRAV,14487669.36748,0.6427681859469,-1.233228141836E-17,-0.7660607411521
424,GRAV,14487669.36748,0.6427681859469,-1.233228141836E-17,-0.7660607411521
425,GRAV,15065466.74441,0.5936706690387,-1.298525501561E-17,-0.804708106535
426,GRAV,14830357.6519,0.5703174732517,-1.32687069606E-17,-0.8214243603058
427,GRAV,14830357.6519,0.5703174732517,-1.32687069606E-17,-0.8214243603058
428,GRAV,15061569.25574,0.6191425676201,-1.265655439318E-17,-0.785278600855
429,GRAV,14797028.94762,0.5634777282517,-1.334860841839E-17,-0.8261312545621
430,GRAV,14700554.33034,0.6394055665801,-1.237958533036E-17,-0.7688696387726
431,GRAV,14145229.68794,0.6706723286863,-1.19227443217E-17,-0.7417537512777
432,GRAV,14700554.33034,0.6394055665801,-1.237958533036E-17,-0.7688696387726
433,GRAV,14701118.85564,0.5724579651476,-1.324347795044E-17,-0.8199340693855
434,GRAV,14701118.85564,0.5724579651476,-1.324347795044E-17,-0.8199340693855
435,GRAV,15587572.67056,0.6225644573554,-1.26105481703E-17,-0.7825685250748
436,GRAV,15291148.75154,0.6503184701221,-1.222400983837E-17,-0.759661692741
437,GRAV,14769260.72424,0.6673444013136,-1.19729126945E-17,-0.7447492531285
438,GRAV,15031810.68207,0.5879899103984,-1.305573636489E-17,-0.8088682619992
439,GRAV,13842433.44678,0.5527134456485,-1.347201800141E-17,-0.833371373998
440,GRAV,13512798.97559,0.5705642025131,-1.326641114969E-17,-0.821253000488
441,GRAV,13955801.93882,0.6605636659323,-1.20747092481E-17,-0.7507700335323
442,GRAV,15171407.67479,0.6112908118602,-1.276010220125E-17,-0.7914060546491
443,GRAV,14009095.47599,0.5690063206708,-1.328449542771E-17,-0.8223331484481
444,GRAV,14009095.47599,0.5690063206708,-1.328449542771E-17,-0.8223331484481
445,GRAV,14076369.94177,0.6444948664908,-1.230797096648E-17,-0.764608636537
446,GRAV,14076369.94177,0.6444948664908,-1.230797096648E-17,-0.764608636537
447,GRAV,13446951.51406,0.5773349930965,-1.318594851525E-17,-0.8165073825424
448,GRAV,13841340.8315,0.6572908675827,-1.21230796555E-17,-0.7536369917887
449,GRAV,13960346.29982,0.5495063229478,-1.350796161894E-17,-0.8354895577088
450,GRAV,15387278.1623,0.6316056179776,-1.248768038705E-17,-0.7752898447285
451,GRAV,14511398.44842,0.6639659592922,-1.202378653487E-17,-0.7477627998912
452,GRAV,13331238.53255,0.6028444731967,-1.287010786856E-17,-0.7978587225419
453,GRAV,13519150.80725,0.6407392132795,-1.236138944274E-17,-0.7677585952407
454,GRAV,15030443.95381,0.653321742203,-1.218059214526E-17,-0.7570803795931
455,GRAV,13457050.32549,0.6346380167897,-1.244667110384E-17,-0.7728095416371
456,GRAV,13335817.8873,0.6102078225623,-1.277507350461E-17,-0.7922413857429
457,GRAV,14391120.8818,0.647996637314,-1.225780659098E-17,-0.7616431960109
458,GRAV,14391120.8818,0.647996637314,-1.225780659098E-17,-0.7616431960109
459,GRAV,14957105.19875,0.6286984789258,-1.252769693316E-17,-0.7776491642099
460,GRAV,15257244.64217,0.614641371447,-1.271611438672E-17,-0.7888066838623
461,GRAV,14839987.31193,0.5556856580624,-1.343794233646E-17,-0.831392476165
462,GRAV,14470388.29038,0.5635964430972,-1.334737545734E-17,-0.8260502704607
463,GRAV,14470388.29038,0.5635964430972,-1.334737545734E-17,-0.8260502704607
464,GRAV,13840648.15924,0.543616774501,-1.357337793281E-17,-0.8393335466197
465,GRAV,13838756.15506,0.6656642149822,-1.199863781446E-17,-0.7462514005964
466,GRAV,15093761.18162,0.6119253409646,-1.2751838513E-17,-0.7909155309421
467,GRAV,14461380.22562,0.6715485907322,-1.190924387854E-17,-0.7409605187091
468,GRAV,14835235.88124,0.640606912737,-1.236264172804E-17,-0.7678689884046
469,GRAV,14835235.88124,0.640606912737,-1.236264172804E-17,-0.7678689884046
470,GRAV,15481399.31723,0.6375804894784,-1.240481977282E-17,-0.7703837481648
471,GRAV,14836443.79066,0.5711863166918,-1.325845773688E-17,-0.820820438113
472,GRAV,15635624.67292,0.6079757100046,-1.280304243407E-17,-0.793955625992
473,GRAV,14836443.79066,0.5711863166918,-1.325845773688E-17,-0.820820438113
474,GRAV,15089946.65598,0.6261496555707,-1.256233130097E-17,-0.7797028977942
475,GRAV,13368952.33995,0.6420618369898,-1.234280906166E-17,-0.7666528533054
476,GRAV,15057351.08873,0.6608115351378,-1.207054545557E-17,-0.7505518736428
477,GRAV,13575776.26478,0.5546314522915,-1.34504809004E-17,-0.8320961195253
478,GRAV,13241445.44081,0.5876460532004,-1.306080637022E-17,-0.8091181101409
479,GRAV,14150464.56226,0.5383785908346,-1.363055155656E-17,-0.8427030870544
480,GRAV,13577374.06456,0.6553787323543,-1.215124820024E-17,-0.7553004151844
481,GRAV,13250618.5295,0.6250210636706,-1.257847517531E-17,-0.7806078849
482,GRAV,15134680.03356,0.5880302989599,-1.305519684247E-17,-0.8088389008357
483,GRAV,14965741.41664,0.5690739244017,-1.328327704069E-17,-0.8222863665208
484,GRAV,14965741.41664,0.5690739244017,-1.328327704069E-17,-0.8222863665208
485,GRAV,14988915.34956,0.5837874032025,-1.310723953833E-17,-0.8119065635047
486,GRAV,15094481.94103,0.5864529794797,-1.307460300966E-17,-0.8099832731972
487,GRAV,14957105.19875,0.6286984789258,-1.252769693316E-17,-0.7776491642099
488,GRAV,15349196.5152,0.5526691394483,-1.347185752608E-17,-0.8334007573199
489,GRAV,14957752.45926,0.5837370817861,-1.310786567094E-17,-0.8119427438852
490,GRAV,15089946.65598,0.6261496555707,-1.256233130097E-17,-0.7797028977942
491,GRAV,13160929.97301,0.6325733874647,-1.247537394582E-17,-0.77450042574
492,GRAV,14029478.32181,0.6757259949169,-1.184533917092E-17,-0.7371528876655
493,GRAV,14221137.96718,0.6774439454589,-1.181868077213E-17,-0.7355744019207
494,GRAV,13573660.29576,0.5453696178644,-1.355415938449E-17,-0.8381956692267
495,GRAV,14902672.88966,0.6714585789151,-1.191042682253E-17,-0.7410420884142
496,GRAV,14719899.03075,0.6747755778887,-1.185967481909E-17,-0.7380229803231
497,GRAV,15171250.58455,0.5958715698163,-1.295763834264E-17,-0.8030797421705
498,GRAV,13427651.54139,0.6568360983688,-1.21299677525E-17,-0.7540333811441
499,GRAV,15680300.7489,0.6285731186387,-1.252912146329E-17,-0.7777504963192
500,GRAV,13574414.50354,0.6639328738211,-1.202472398285E-17,-0.747792176383
501,GRAV,14032074.21248,0.5324242877138,-1.369485082182E-17,-0.8464776298595
502,GRAV,15726469.88758,0.6191714361239,-1.265590852108E-17,-0.785255839003
503,GRAV,15446261.66573,0.6505475995349,-1.222064015058E-17,-0.7594654835734
504,GRAV,15317451.60883,0.6577120122758,-1.211623778627E-17,-0.7532694796075
505,GRAV,15726956.98836,0.5951124654787,-1.296694925387E-17,-0.80364242884
506,GRAV,15063397.42322,0.55753863117,-1.341675959004E-17,-0.8301509951527
507,GRAV,15591825.2148,0.5917002343266,-1.300960332003E-17,-0.8061580693002
508,GRAV,15184796.16162,0.6080208223689,-1.280263471243E-17,-0.7939210789278
509,GRAV,14971468.87842,0.5509410472533,-1.349144245754E-17,-0.8345441644703
510,GRAV,13363480.92886,0.5693854996827,-1.328036191648E-17,-0.8220706494889
511,GRAV,13192039.65228,0.6065077793294,-1.282312391785E-17,-0.7950775519488
512,GRAV,13933756.0389,0.5783022114781,-1.317409548248E-17,-0.8158226230006
513,GRAV,14249436.93788,0.6429050803619,-1.233045051193E-17,-0.7659458581681
514,GRAV,14249436.93788,0.6429050803619,-1.233045051193E-17,-0.7659458581681
515,GRAV,13933756.0389,0.5783022114781,-1.317409548248E-17,-0.8158226230006
516,GRAV,15095696.79724,0.6027921063562,-1.286996165761E-17,-0.7978982870734
517,GRAV,14897704.88164,0.6323088506173,-1.247819660365E-17,-0.7747164109731
518,GRAV,13751026.16585,0.5962672462512,-1.295329830829E-17,-0.8027860057624
519,GRAV,13751026.16585,0.5962672462512,-1.295329830829E-17,-0.8027860057624
520,GRAV,14252166.19758,0.5688562048606,-1.328614445698E-17,-0.8224369995274
521,GRAV,13934668.13699,0.6336481096966,-1.246014026409E-17,-0.7736214016416
522,GRAV,13934668.13699,0.6336481096966,-1.246014026409E-17,-0.7736214016416
523,GRAV,14252166.19758,0.5688562048606,-1.328614445698E-17,-0.8224369995274
524,GRAV,15081321.47554,0.5992203368982,-1.291542566988E-17,-0.8005841541322
525,GRAV,15478027.14653,0.5605211135903,-1.338244170764E-17,-0.8281401338056
526,GRAV,14897704.88164,0.6323088506173,-1.247819660365E-17,-0.7747164109731
527,GRAV,14898351.23628,0.579954286706,-1.315376482103E-17,-0.8146490197203
528,GRAV,14898351.23628,0.579954286706,-1.315376482103E-17,-0.8146490197203
529,GRAV,15027232.25489,0.5777911750489,-1.317974803451E-17,-0.8161846347706
530,GRAV,13755604.22536,0.6165910296152,-1.269103153054E-17,-0.7872836224627
531,GRAV,13755604.22536,0.6165910296152,-1.269103153054E-17,-0.7872836224627
532,GRAV,13105695.93777,0.6215137300231,-1.262578366326E-17,-0.7834032699656
533,GRAV,13426859.73958,0.5532645417281,-1.346601059891E-17,-0.8330056103451
534,GRAV,14601457.70928,0.5700030864761,-1.327250749819E-17,-0.8216425508746
535,GRAV,14601457.70928,0.5700030864761,-1.327250749819E-17,-0.8216425508746
536,GRAV,14223726.5853,0.5304458193897,-1.371589512274E-17,-0.8477188405904
537,GRAV,13156336.17677,0.5797100086324,-1.315753911168E-17,-0.814822867801
538,GRAV,13101112.85529,0.5912241533705,-1.301665271514E-17,-0.8065072848223
539,GRAV,15680427.79044,0.5854064813866,-1.308719473136E-17,-0.8107399407643
540,GRAV,15078236.76445,0.5970154802864,-1.294328431956E-17,-0.8022297154172
541,GRAV,14600894.77494,0.6417025754603,-1.234729611482E-17,-0.7669535870231
542,GRAV,14600894.77494,0.6417025754603,-1.234729611482E-17,-0.7669535870231
543,GRAV,15169681.55769,0.5812481876575,-1.313801095112E-17,-0.8137263325866
544,GRAV,15499437.77114,0.604696675817,-1.284539329777E-17,-0.7964558558112
545,GRAV,15231060.73188,0.5887534981531,-1.304624196041E-17,-0.8083126365538
546,GRAV,15591825.2148,0.5917002343266,-1.300960332003E-17,-0.8061580693002
547,GRAV,15422978.52131,0.5823891350845,-1.312407482514E-17,-0.8129101397667
548,GRAV,15422978.52131,0.5823891350845,-1.312407482514E-17,-0.8129101397667
549,GRAV,15033278.55346,0.5784859732659,-1.317139788806E-17,-0.8156923309279
550,GRAV,15163591.84314,0.5805624030721,-1.314631031209E-17,-0.8142157552757
551,GRAV,15063397.42322,0.55753863117,-1.341675959004E-17,-0.8301509951527
552,GRAV,15074334.68145,0.6158672334587,-1.270001366895E-17,-0.7878499544659
553,GRAV,14971468.87842,0.5509410472533,-1.349144245754E-17,-0.8345441644703
554,GRAV,15103427.72134,0.5462617839311,-1.354358306993E-17,-0.8376145076444
555,GRAV,15082473.75087,0.5994740634998,-1.291220951668E-17,-0.8003941823821
556,GRAV,15079375.88404,0.5972699483506,-1.294007666899E-17,-0.8020402787873
557,GRAV,15274023.64884,0.6046707029191,-1.284581553035E-17,-0.7964755746608
558,GRAV,15274023.64884,0.6046707029191,-1.284581553035E-17,-0.7964755746608
559,GRAV,15512976.36752,0.5760282447427,-1.320066956678E-17,-0.8174297898038
560,GRAV,14784624.14276,0.5387590303224,-1.362613188325E-17,-0.8424599143259
561,GRAV,15323556.44279,0.5607828980826,-1.337949236221E-17,-0.8279628863772
562,GRAV,15075473.4537,0.615617197138,-1.27033164106E-17,-0.7880453455151
563,GRAV,15499437.77114,0.604696675817,-1.284539329777E-17,-0.7964558558112
564,GRAV,14784624.14276,0.5387590303224,-1.362613188325E-17,-0.8424599143259
565,GRAV,15323556.44279,0.5607828980826,-1.337949236221E-17,-0.8279628863772
566,GRAV,15362699.66433,0.5749109818396,-1.321406181101E-17,-0.8182159635208
567,GRAV,15362699.66433,0.5749109818396,-1.321406181101E-17,-0.8182159635208
568,GRAV,14479107.96904,0.5340721297196,-1.367696332776E-17,-0.8454389157454
569,GRAV,14529157.0633,0.5426880570989,-1.358327750761E-17,-0.8399343264102
570,GRAV,14406407.33549,0.5418615977631,-1.359240501936E-17,-0.8404677322001
571,GRAV,14457825.98514,0.5504417395472,-1.349726212015E-17,-0.8348735780729
572,GRAV,14529157.0633,0.5426880570989,-1.358327750761E-17,-0.8399343264102
573,GRAV,14580714.45292,0.5511878058114,-1.348883942612E-17,-0.8343812094749
574,GRAV,14332096.43667,0.6528995609725,-1.218703251377E-17,-0.7574444951823
575,GRAV,14553239.62438,0.6469349432408,-1.227294784267E-17,-0.762545198145
576,GRAV,14457231.6459,0.652143125458,-1.219795849108E-17,-0.7580958672344
577,GRAV,14093072.47789,0.6503724407787,-1.222374794352E-17,-0.759615487122
578,GRAV,13979439.89284,0.647009983859,-1.227213634726E-17,-0.762481528161
579,GRAV,13931089.32037,0.6398190079178,-1.237412945386E-17,-0.768525625537
580,GRAV,13911198.49584,0.5660607696314,-1.331900051104E-17,-0.8243635151341
581,GRAV,14028238.95809,0.5627921812848,-1.335688462833E-17,-0.8265984277052
582,GRAV,14162895.75133,0.5649767454475,-1.333149895528E-17,-0.8251068276917
583,GRAV,13729341.03584,0.5859491078643,-1.308139371177E-17,-0.810347853081
584,GRAV,13860876.85895,0.5835137985014,-1.311107782021E-17,-0.8121032243246
585,GRAV,13729341.03584,0.5859491078643,-1.308139371177E-17,-0.810347853081
586,GRAV,13860876.85895,0.5835137985014,-1.311107782021E-17,-0.8121032243246
587,GRAV,13735032.38644,0.6029000242774,-1.286919235256E-17,-0.7978167463311
588,GRAV,13648047.47102,0.6087693839995,-1.279361796679E-17,-0.7933472361487
589,GRAV,13648047.47102,0.6087693839995,-1.279361796679E-17,-0.7933472361487
590,GRAV,13735032.38644,0.6029000242774,-1.286919235256E-17,-0.7978167463311
591,GRAV,13734878.138,0.6263847591193,-1.255974931451E-17,-0.7795140367839
592,GRAV,13861814.2238,0.6286810550322,-1.252842634201E-17,-0.7776632504134
593,GRAV,13861814.2238,0.6286810550322,-1.252842634201E-17,-0.7776632504134
594,GRAV,13734878.138,0.6263847591193,-1.255974931451E-17,-0.7795140367839
595,GRAV,15180976.06048,0.6098042959971,-1.277947948621E-17,-0.7925520302059
596,GRAV,15095537.21404,0.6063933089982,-1.282371165543E-17,-0.7951648601405
597,GRAV,15137301.62885,0.5902468230802,-1.302781782791E-17,-0.8072228241593
598,GRAV,15240172.67818,0.5902716324226,-1.30274690355E-17,-0.8072046828142
599,GRAV,15185343.40871,0.5994365086639,-1.291264382091E-17,-0.8004223085852
600,GRAV,15095696.79724,0.6027921063562,-1.286996165761E-17,-0.7978982870734
601,GRAV,15094524.68225,0.6025396472668,-1.287318868834E-17,-0.7980889508517
602,GRAV,15184191.35255,0.5991844895072,-1.291583803189E-17,-0.8006109838954
603,GRAV,11032492.12305,0.6199053137946,-1.264863643326E-17,-0.7846766225199
604,GRAV,6072496.23894,0.6186805702435,-1.2671851302E-17,-0.7856426363196
605,GRAV,6072496.23894,0.6186805702435,-1.2671851302E-17,-0.7856426363196
606,GRAV,6078304.245031,0.642661936844,-1.23426701201E-17,-0.7661498775905
607,GRAV,8555972.242989,0.6323112461385,-1.248279256548E-17,-0.7747144557879
608,GRAV,11034490.92026,0.5859538225077,-1.308299094402E-17,-0.8103444439796
609,GRAV,8551331.335284,0.6064550949041,-1.282763118197E-17,-0.7951177383664
610,GRAV,11031292.66967,0.5996633101095,-1.291207511768E-17,-0.8002524067496
611,GRAV,8555972.241422,0.5799410402571,-1.315855394171E-17,-0.8146584497969
612,GRAV,6074674.890592,0.5815778597444,-1.314320002114E-17,-0.8134907455252
613,GRAV,11031292.66967,0.5996633101095,-1.291207511768E-17,-0.8002524067496
614,GRAV,8551331.335284,0.6064550949041,-1.282763118197E-17,-0.7951177383664
615,GRAV,2254152.304669,0.6860374329338,-1.171866701189E-17,-0.7275662448283
616,GRAV,2126726.499259,0.7969109920957,-9.651954455116E-18,-0.604096739502
617,GRAV,2255677.057503,0.4087314115244,-1.486324995108E-17,-0.9126547174224
618,GRAV,2124880.595694,0.3069060787124,-1.554649308695E-17,-0.9517398062755
619,GRAV,5132879.342149,0.5052782713565,-1.39872640622E-17,-0.8629564696408
620,GRAV,2140473.693658,0.5084549776766,-1.398072388049E-17,-0.8610885759757
621,GRAV,2277035.219763,0.8549052870502,-8.226506492614E-18,-0.5187841074798
622,GRAV,1853565.415533,0.2960132439505,-1.561362258699E-17,-0.9551838353981
623,GRAV,2500111.088328,0.2961749065214,-1.55997571361E-17,-0.9551337208721
624,GRAV,4079356.68654,0.3519739941291,-1.524998760382E-17,-0.9360097795733
625,GRAV,2864741.456495,0.3399876107363,-1.533681981576E-17,-0.9404299147442
626,GRAV,4912421.882565,0.7362063078785,-1.084309010365E-17,-0.6767571737632
627,GRAV,4008502.056797,0.2629266874032,-1.575746580734E-17,-0.9648158150918
628,GRAV,2501359.278848,0.8195976984758,-9.12528474635E-18,-0.5729394493777
629,GRAV,1871420.539843,0.5262716868432,-1.3803311699E-17,-0.8503164773349
630,GRAV,3275773.863874,0.5223677082238,-1.382295560818E-17,-0.8527203395047
631,GRAV,3742085.716125,0.5051606593361,-1.399517622823E-17,-0.8630253230694
632,GRAV,3022881.594663,0.4947734723866,-1.410351359619E-17,-0.8690219853505
633,GRAV,3960155.973511,0.4681718697556,-1.434635321466E-17,-0.8836374258538
634,GRAV,4049549.347789,0.5822151730039,-1.314312957567E-17,-0.8130347423844
635,GRAV,3713953.441221,0.4411785957601,-1.458450468097E-17,-0.8974193259804
636,GRAV,4311002.086551,0.5968973999954,-1.296018320384E-17,-0.8023175766981
637,GRAV,3243599.707726,0.4499077856991,-1.451347368193E-17,-0.8930750160918
638,GRAV,4251879.554724,0.5459675381735,-1.356256647952E-17,-0.8378063304015
639,GRAV,5311728.86282,0.5360367083587,-1.366687532267E-17,-0.8441946738117
640,GRAV,4390193.258233,0.2512624225438,-1.581087102061E-17,-0.9679190023021
641,GRAV,3002799.91195,0.2224019133629,-1.594725650758E-17,-0.9749550702122
642,GRAV,2657182.559145,0.1634520778696,-1.616431002949E-17,-0.9865512750182
643,GRAV,4994191.875327,0.7854532288981,-9.874557772525E-18,-0.6189210169428
644,GRAV,5101105.161947,0.5872571578352,-1.307680219385E-17,-0.8094004142397
645,GRAV,4454981.378334,0.3333293153406,-1.536686202485E-17,-0.9428104621474
646,GRAV,1711506.177364,0.4177889378685,-1.480540996198E-17,-0.9085441119697
647,GRAV,5250948.190529,0.4797881978106,-1.423347413034E-17,-0.8773843429431
648,GRAV,4127816.742119,0.394099403551,-1.495543410945E-17,-0.9190678212846
649,GRAV,2440637.737727,0.3661109687522,-1.517059527882E-17,-0.9305712001558
650,GRAV,4882422.12911,0.709377806069,-1.131426781398E-17,-0.7048284388819
651,GRAV,3892234.048144,0.362581806709,-1.51803991073E-17,-0.9319519480336
652,GRAV,2812987.864424,0.4006596317312,-1.491681696099E-17,-0.9162269694246
653,GRAV,3048938.61106,0.3577408272048,-1.521954959723E-17,-0.9338209146035
654,GRAV,3817908.281882,0.2696156843262,-1.572572126787E-17,-0.9629680071349
655,GRAV,2348322.327775,0.6237748830577,-1.262790291626E-17,-0.7816040527443
656,GRAV,1983567.547798,0.4126439801533,-1.483847691203E-17,-0.9108923897164
657,GRAV,5115615.881574,0.6673422630741,-1.198483273021E-17,-0.7447511691264
658,GRAV,3526693.969377,0.208400970163,-1.599873391416E-17,-0.9780434732849
659,GRAV,4980442.06423,0.4850742319947,-1.418461728204E-17,-0.8744729781158
660,GRAV,4533825.444346,0.7461799275556,-1.066007854674E-17,-0.6657443320923
661,GRAV,3833051.779108,0.9051410244236,-6.653133333923E-18,-0.4251114276344
662,GRAV,5102081.488051,0.7317227690883,-1.092363618716E-17,-0.6816023688323
663,GRAV,2320269.453501,0.2688122921634,-1.574544579861E-17,-0.9631925828109
664,GRAV,3179007.762283,0.2468008014382,-1.583949240613E-17,-0.9690662332418
665,GRAV,5266433.033582,0.6025537191436,-1.288451157011E-17,-0.7980783266987
666,GRAV,5003585.516004,0.6135300258897,-1.274323112842E-17,-0.7896713919928
667,GRAV,4499397.64433,0.3724762012101,-1.510918614876E-17,-0.9280417444987
668,GRAV,3986570.779902,0.2164766575813,-1.596376565496E-17,-0.9762877940046
669,GRAV,4208072.278847,0.6799751363497,-1.179487991935E-17,-0.7332351696054
670,GRAV,2874186.223804,0.6206279165814,-1.266291716094E-17,-0.7841052156183
671,GRAV,3939794.821299,0.6715749877502,-1.192602262793E-17,-0.7409365936626
672,GRAV,3139080.712724,0.6369116482316,-1.243778375358E-17,-0.7709368017853
673,GRAV,1983567.547798,0.4126439801533,-1.483847691203E-17,-0.9108923897164
674,GRAV,3708624.177231,0.1533177752836,-1.618496665457E-17,-0.9881769374875
675,GRAV,5325665.734131,0.6916870415128,-1.160456817251E-17,-0.7221973667934
676,GRAV,5372985.643852,0.6546314791073,-1.217263094322E-17,-0.7559481639384
677,GRAV,4622297.793855,0.7981306837963,-9.60140182079E-18,-0.602484366256
678,GRAV,4501303.172896,0.7175645227381,-1.117590437071E-17,-0.6964920356384
679,GRAV,5470695.251618,0.5529333673279,-1.347982420986E-17,-0.8332254744638
680,GRAV,5424227.806214,0.5112418435286,-1.392622789571E-17,-0.8594368955459
681,GRAV,4370177.878354,0.208721010744,-1.599239868618E-17,-0.9779752244684
682,GRAV,5180858.929366,0.7796887363526,-9.995038617901E-18,-0.6261672894721
683,GRAV,2488717.347449,0.1276033990965,-1.626704368801E-17,-0.9918252731903
684,GRAV,3087560.22171,0.1667188104025,-1.614919719981E-17,-0.986004481865
685,GRAV,5045609.310814,0.8077871198093,-9.382462024682E-18,-0.5894743158698
686,GRAV,4643371.845557,0.3250978289124,-1.541628781337E-17,-0.9456803908491
687,GRAV,3444489.530202,0.1350386303421,-1.623764203645E-17,-0.9908403344209
688,GRAV,4958219.951058,0.3638304942214,-1.516678981416E-17,-0.9314651745903
689,GRAV,3783431.705071,0.873039144096,-7.692255883284E-18,-0.487650133678
690,GRAV,3567740.853197,0.9120436952052,-6.405784632309E-18,-0.4100930358303
691,GRAV,4677804.797646,0.8213835214987,-9.065222222527E-18,-0.5703762886117
692,GRAV,4581248.722721,0.2461479118203,-1.583351098864E-17,-0.9692322763438
693,GRAV,2752606.031401,0.1021751491891,-1.632152245121E-17,-0.9947664242867
694,GRAV,4040389.38413,0.7171846837257,-1.118482789695E-17,-0.6968831533544
695,GRAV,2960946.755933,0.6874956220004,-1.168564064779E-17,-0.7261885221692
696,GRAV,3499924.589808,0.7047785156048,-1.139904841059E-17,-0.7094274056885
697,GRAV,3481546.466205,0.8390520438835,-8.633180766486E-18,-0.5440511627182
698,GRAV,3245856.608813,0.884835837877,-7.334851041218E-18,-0.4659029298133
699,GRAV,3210281.389557,0.8428176496987,-8.537941579221E-18,-0.5381992283127
700,GRAV,4306411.760544,0.8797180453754,-7.487207921811E-18,-0.4754956999185
701,GRAV,4520460.973797,0.8609491419031,-8.038244575469E-18,-0.5086910408651
702,GRAV,4980442.06423,0.4850742319947,-1.418461728204E-17,-0.8744729781158
703,GRAV,4437191.460934,0.8051138907856,-9.445860055905E-18,-0.593120243175
704,GRAV,4344951.590721,0.7517451588969,-1.055558054524E-17,-0.6594537254994
705,GRAV,4270992.595608,0.8480604025917,-8.392503540064E-18,-0.5298995693111
706,GRAV,2610562.248228,0.7284750422603,-1.099924303091E-17,-0.6850723412924
707,GRAV,3612787.742976,0.7524686126807,-1.054609079004E-17,-0.6586281097329
708,GRAV,3341085.168747,0.7491555562709,-1.061127170341E-17,-0.6623941066378
709,GRAV,2516347.45401,0.9073656460253,-6.586701129639E-18,-0.4203422229721
710,GRAV,1897184.414431,0.8387971419681,-8.662044939446E-18,-0.5444440785115
711,GRAV,2777612.366085,0.9191615650566,-6.14437034098E-18,-0.3938807145859
712,GRAV,2722375.058036,0.8766999558039,-7.591900024945E-18,-0.4810376154663
713,GRAV,4950954.553593,0.4184783678826,-1.476436712028E-17,-0.908226764423
714,GRAV,5222988.104161,0.4164907515577,-1.477914169797E-17,-0.9091399528493
715,GRAV,4678947.445402,0.4206947276471,-1.474779120243E-17,-0.9072022630758
716,GRAV,4950954.553593,0.4184783678826,-1.476436712028E-17,-0.908226764423
717,GRAV,4910887.409446,0.558333155778,-1.342045547371E-17,-0.8296168315307
718,GRAV,4751333.282602,0.5396933493582,-1.362924210568E-17,-0.8418616802412
719,GRAV,4807617.550723,0.5857580531785,-1.309630990382E-17,-0.8104859672669
720,GRAV,4644517.125398,0.5680789485581,-1.330876245966E-17,-0.8229740628994
721,GRAV,4751333.282602,0.5396933493582,-1.362924210568E-17,-0.8418616802412
722,GRAV,4594305.905273,0.5194723056388,-1.384491994292E-17,-0.8544872870174
723,GRAV,2126726.499259,0.7969109920957,-9.651954455116E-18,-0.604096739502
724,GRAV,2254152.304669,0.6860374329338,-1.171866701189E-17,-0.7275662448283
725,GRAV,1756598.093621,0.7625621055499,-1.037717108566E-17,-0.6469150138769
726,GRAV,1908893.363315,0.6239930945668,-1.263408022308E-17,-0.7814298547745

***********************************************************
** MbDAssembly gravity
*DLOAD
Eall,GRAV,9810,0,0,-1

***********************************************************
** Outputs --> frd file
*NODE FILE
U
*EL FILE
S, E
*OUTPUT, FREQUENCY=1
***********************************************************
*END STEP

***********************************************************
** CalculiX Input file
**   written by    --> FreeCAD 26.3.0
**   written on    --> Sat Sep  5 11:50:34 2026
**   file name     --> RealisticPendulum.FCStd
**   analysis name --> FEMPart002
**
**
***********************************************************
**  About units:
**  See ccx manual, ccx does not know about any unit.
**  Golden rule: The user must make sure that the numbers they provide have consistent units.
**  The user is the FreeCAD calculix writer module ;-)
**
**  The unit system which is used at Guido Dhondt's company: mm, N, s, K
**  Since Length and Mass are connected by Force, if Length is mm the Mass is in t to get N
**  The following units are used to write to inp file:
**
**  Length: mm (this includes the mesh geometry)
**  Mass: t
**  TimeSpan: s
**  Temperature: K
**
**  This leads to:
**  Force: N
**  Pressure: N/mm^2 == MPa (Young's Modulus has unit Pressure)
**  Density: t/mm^3
**  Gravity: mm/s^2
**  Thermal conductivity: t*mm/K/s^3 == as W/m/K == kW/mm/K
**  Specific Heat: mm^2/s^2/K = J/kg/K == kJ/t/K
**
