** written by FreeCAD inp file writer for CalculiX,Abaqus meshes
** highest dimension mesh elements only.

** Nodes
*Node, NSET=Nall
1, -5e-15, 5, 212
2, -5e-15, -5, 212
3, -2e-15, 5, 200
4, -2e-15, -5, 200
5, -5, -3, 180
6, -5, -3, 48
7, -5, 3, 180
8, -5, 3, 48
9, 5, -3, 180
10, 5, -3, 48
11, 5, 3, 180
12, 5, 3, 48
13, -7e-15, 5, 76
14, -7e-15, -5, 76
15, 10, 5, 209.3205080757
16, 17.32050807569, 5, 202
17, 20, 5, 192
18, 17.32050807569, 5, 182
19, 10, 5, 174.6794919243
20, -1.130139009627e-13, 5, 172
21, -10, 5, 174.6794919243
22, -17.32050807569, 5, 182
23, -20, 5, 192
24, -17.32050807569, 5, 202
25, -10, 5, 209.3205080757
26, 5.17638090205, 5, 211.3185165258
27, 14.14213562373, 5, 206.1421356237
28, 19.31851652578, 5, 197.1763809021
29, 19.31851652578, 5, 186.8236190979
30, 14.14213562373, 5, 177.8578643763
31, 5.17638090205, 5, 172.6814834742
32, -5.176380902051, 5, 172.6814834742
33, -14.14213562373, 5, 177.8578643763
34, -19.31851652578, 5, 186.8236190979
35, -19.31851652578, 5, 197.1763809021
36, -14.14213562373, 5, 206.1421356237
37, -5.17638090205, 5, 211.3185165258
38, -4.9e-15, 0, 212
39, 10, -5, 209.3205080757
40, 17.32050807569, -5, 202
41, 20, -5, 192
42, 17.32050807569, -5, 182
43, 10, -5, 174.6794919243
44, -1.130139009627e-13, -5, 172
45, -10, -5, 174.6794919243
46, -17.32050807569, -5, 182
47, -20, -5, 192
48, -17.32050807569, -5, 202
49, -10, -5, 209.3205080757
50, 5.17638090205, -5, 211.3185165258
51, 14.14213562373, -5, 206.1421356237
52, 19.31851652578, -5, 197.1763809021
53, 19.31851652578, -5, 186.8236190979
54, 14.14213562373, -5, 177.8578643763
55, 5.17638090205, -5, 172.6814834742
56, -5.176380902051, -5, 172.6814834742
57, -14.14213562373, -5, 177.8578643763
58, -19.31851652578, -5, 186.8236190979
59, -19.31851652578, -5, 197.1763809021
60, -14.14213562373, -5, 206.1421356237
61, -5.17638090205, -5, 211.3185165258
62, 4, 5, 198.9282032303
63, 6.928203230276, 5, 196
64, 8, 5, 192
65, 6.928203230275, 5, 188
66, 4, 5, 185.0717967697
67, -4.520556038509e-14, 5, 184
68, -4, 5, 185.0717967697
69, -6.928203230276, 5, 188
70, -8, 5, 192
71, -6.928203230275, 5, 196
72, -4, 5, 198.9282032303
73, 2.07055236082, 5, 199.7274066103
74, 5.656854249492, 5, 197.6568542495
75, 7.727406610313, 5, 194.0705523608
76, 7.727406610313, 5, 189.9294476392
77, 5.656854249492, 5, 186.3431457505
78, 2.07055236082, 5, 184.2725933897
79, -2.07055236082, 5, 184.2725933897
80, -5.656854249492, 5, 186.3431457505
81, -7.727406610313, 5, 189.9294476392
82, -7.727406610313, 5, 194.0705523608
83, -5.656854249492, 5, 197.6568542495
84, -2.07055236082, 5, 199.7274066103
85, 4, -5, 198.9282032303
86, 6.928203230276, -5, 196
87, 8, -5, 192
88, 6.928203230275, -5, 188
89, 4, -5, 185.0717967697
90, -4.520556038509e-14, -5, 184
91, -4, -5, 185.0717967697
92, -6.928203230276, -5, 188
93, -8, -5, 192
94, -6.928203230275, -5, 196
95, -4, -5, 198.9282032303
96, 2.07055236082, -5, 199.7274066103
97, 5.656854249492, -5, 197.6568542495
98, 7.727406610313, -5, 194.0705523608
99, 7.727406610313, -5, 189.9294476392
100, 5.656854249492, -5, 186.3431457505
101, 2.07055236082, -5, 184.2725933897
102, -2.07055236082, -5, 184.2725933897
103, -5.656854249492, -5, 186.3431457505
104, -7.727406610313, -5, 189.9294476392
105, -7.727406610313, -5, 194.0705523608
106, -5.656854249492, -5, 197.6568542495
107, -2.07055236082, -5, 199.7274066103
108, -1.96e-15, -1.666666666667, 200
109, -1.96e-15, 1.666666666667, 200
110, -1.96e-15, -3.333333333333, 200
111, -1.96e-15, 8.881784197001e-16, 200
112, -1.96e-15, 3.333333333333, 200
113, -5, -3, 114
114, -5, 0, 180
115, -5, 3, 114
116, -5, 0, 48
117, 5, -3, 114
118, 5, 0, 180
119, 5, 3, 114
120, 5, 0, 48
121, 0, -3, 48
122, 0, -3, 180
123, 0, 3, 48
124, 0, 3, 180
125, 14, 5, 72.24871130596
126, 24.24871130596, 5, 62
127, 28, 5, 48
128, 24.24871130596, 5, 34
129, 14, 5, 23.75128869404
130, -1.706539592236e-13, 5, 20
131, -14, 5, 23.75128869404
132, -24.24871130596, 5, 34
133, -28, 5, 48
134, -24.24871130596, 5, 62
135, -14, 5, 72.24871130596
136, 7.246933262871, 5, 75.04592313609
137, 19.79898987322, 5, 67.79898987322
138, 27.04592313609, 5, 55.24693326287
139, 27.04592313609, 5, 40.75306673713
140, 19.79898987322, 5, 28.20101012678
141, 7.24693326287, 5, 20.95407686391
142, -7.246933262871, 5, 20.95407686391
143, -19.79898987322, 5, 28.20101012678
144, -27.04592313609, 5, 40.75306673713
145, -27.04592313609, 5, 55.24693326287
146, -19.79898987322, 5, 67.79898987322
147, -7.24693326287, 5, 75.04592313609
148, -6.86e-15, 0, 76
149, 14, -5, 72.24871130596
150, 24.24871130596, -5, 62
151, 28, -5, 48
152, 24.24871130596, -5, 34
153, 14, -5, 23.75128869404
154, -1.706539592236e-13, -5, 20
155, -14, -5, 23.75128869404
156, -24.24871130596, -5, 34
157, -28, -5, 48
158, -24.24871130596, -5, 62
159, -14, -5, 72.24871130596
160, 7.246933262871, -5, 75.04592313609
161, 19.79898987322, -5, 67.79898987322
162, 27.04592313609, -5, 55.24693326287
163, 27.04592313609, -5, 40.75306673713
164, 19.79898987322, -5, 28.20101012678
165, 7.24693326287, -5, 20.95407686391
166, -7.246933262871, -5, 20.95407686391
167, -19.79898987322, -5, 28.20101012678
168, -27.04592313609, -5, 40.75306673713
169, -27.04592313609, -5, 55.24693326287
170, -19.79898987322, -5, 67.79898987322
171, -7.24693326287, -5, 75.04592313609
172, 5.17638090205, 0, 211.3185165258
173, -5.17638090205, 0, 211.3185165258
174, 10, 0, 209.3205080757
175, -10, 0, 209.3205080757
176, 14.14213562373, 0, 206.1421356237
177, 19.31851652578, 0, 197.1763809021
178, 20, 0, 192
179, 17.32050807569, 0, 202
180, 19.31851652578, 0, 186.8236190979
181, 17.32050807569, 0, 182
182, 14.14213562373, 0, 177.8578643763
183, 10, 0, 174.6794919243
184, 5.17638090205, 0, 172.6814834742
185, -5.176380902051, 0, 172.6814834742
186, -1.130139009627e-13, 0, 172
187, -14.14213562373, 0, 177.8578643763
188, -17.32050807569, 0, 182
189, -10, 0, 174.6794919243
190, -19.31851652578, 0, 186.8236190979
191, -19.31851652578, 0, 197.1763809021
192, -17.32050807569, 0, 202
193, -20, 0, 192
194, -14.14213562373, 0, 206.1421356237
195, 3.416237101988, 5, 204.7495704353
196, 9.333333333333, 5, 182.6666666667
197, -3.472079033996, 5, 204.5411655079
198, -9.286798389993, 5, 201.0901942513
199, -12.74957043532, 5, 188.583762898
200, -12.38084668855, 5, 195.2789928582
201, -9.124928405887, 5, 182.7225085987
202, 3.26367410655, 5, 179.4029925601
203, 12.59700743988, 5, 188.7363258935
204, -3.31020904989, 5, 179.6461316421
205, 9.277491401325, 5, 201.1249284059
206, 12.35386835786, 5, 195.3102090499
207, 6.708118550994, 5, 207.0350392555
208, 1.708118550994, 5, 208.3747852177
209, -1.736039516998, 5, 208.2705827539
210, -6.736039516998, 5, 206.9308367918
211, -0.02792096600395, 5, 204.6453679716
212, 1.708118550994, 5, 202.3747852177
213, 3.708118550994, 5, 201.8388868328
214, -3.736039516998, 5, 201.7346843691
215, -1.736039516998, 5, 202.2705827539
216, 13.29899973851, 5, 201.5624642029
217, 9.638745700663, 5, 205.2227182408
218, 6.346864251657, 5, 202.9372494206
219, 16.17693417893, 5, 193.6551045249
220, 14.83718821678, 5, 198.6551045249
221, 10.81567987959, 5, 198.2175687279
222, 14.95875775779, 5, 185.3681629467
223, 16.29850371994, 5, 190.3681629467
224, 12.47543789887, 5, 192.0232674717
225, 9.666666666667, 5, 178.6730792955
226, 13.32692070451, 5, 182.3333333333
227, 10.96517038661, 5, 185.7014962801
228, 1.631837053275, 5, 175.7014962801
229, 6.631837053275, 5, 177.0412422422
230, 6.298503719941, 5, 181.0348296134
231, -6.655104524945, 5, 177.1628117832
232, -1.655104524945, 5, 175.8230658211
233, -0.02326747167005, 5, 179.5245621011
234, -13.22271824079, 5, 182.3612542993
235, -9.562464202944, 5, 178.7010002615
236, -6.217568727888, 5, 181.1843201204
237, -16.37478521766, 5, 190.291881449
238, -15.03503925551, 5, 185.291881449
239, -10.9372494206, 5, 185.6531357483
240, -14.85067738212, 5, 198.6394964291
241, -16.19042334427, 5, 193.6394964291
242, -12.56520856193, 5, 191.9313778781
243, -9.643399194997, 5, 205.2053511635
244, -13.30365323284, 5, 201.5450971257
245, -10.83382253927, 5, 198.1845935548
246, -6.379438711995, 5, 202.8156798796
247, 6.638745700663, 5, 200.0265658181
248, 8.1028473158, 5, 198.5624642029
249, 9.641035794069, 5, 195.6551045249
250, 10.17693417893, 5, 193.6551045249
251, 10.29850371994, 5, 190.3681629467
252, 9.762605335079, 5, 188.3681629467
253, 8.130768281804, 5, 185.3333333333
254, 6.666666666667, 5, 183.8692317182
255, 3.631837053275, 5, 182.2373946649
256, 1.631837053275, 5, 181.7014962801
257, -1.655104524945, 5, 181.8230658211
258, -3.655104524945, 5, 182.3589642059
259, -6.562464202943, 5, 183.8971526842
260, -8.026565818081, 5, 185.3612542993
261, -9.838886832798, 5, 188.291881449
262, -10.37478521766, 5, 190.291881449
263, -10.19042334427, 5, 193.6394964291
264, -9.654524959411, 5, 195.6394964291
265, -8.107500810134, 5, 198.5450971257
266, -6.643399194997, 5, 200.0091987408
267, 3.416237101988, -5, 204.7495704353
268, 9.333333333333, -5, 182.6666666667
269, -3.472079033996, -5, 204.5411655079
270, -9.286798389993, -5, 201.0901942513
271, -12.74957043532, -5, 188.583762898
272, -12.38084668855, -5, 195.2789928582
273, -9.124928405887, -5, 182.7225085987
274, 3.26367410655, -5, 179.4029925601
275, 12.59700743988, -5, 188.7363258935
276, -3.31020904989, -5, 179.6461316421
277, 9.277491401325, -5, 201.1249284059
278, 12.35386835786, -5, 195.3102090499
279, 1.708118550994, -5, 208.3747852177
280, 6.708118550994, -5, 207.0350392555
281, -6.736039516998, -5, 206.9308367918
282, -1.736039516998, -5, 208.2705827539
283, -0.02792096600395, -5, 204.6453679716
284, 3.708118550994, -5, 201.8388868328
285, 1.708118550994, -5, 202.3747852177
286, -1.736039516998, -5, 202.2705827539
287, -3.736039516998, -5, 201.7346843691
288, 9.638745700663, -5, 205.2227182408
289, 13.29899973851, -5, 201.5624642029
290, 6.346864251657, -5, 202.9372494206
291, 14.83718821678, -5, 198.6551045249
292, 16.17693417893, -5, 193.6551045249
293, 10.81567987959, -5, 198.2175687279
294, 16.29850371994, -5, 190.3681629467
295, 14.95875775779, -5, 185.3681629467
296, 12.47543789887, -5, 192.0232674717
297, 13.32692070451, -5, 182.3333333333
298, 9.666666666667, -5, 178.6730792955
299, 10.96517038661, -5, 185.7014962801
300, 6.631837053275, -5, 177.0412422422
301, 1.631837053275, -5, 175.7014962801
302, 6.298503719941, -5, 181.0348296134
303, -1.655104524945, -5, 175.8230658211
304, -6.655104524945, -5, 177.1628117832
305, -0.02326747167005, -5, 179.5245621011
306, -9.562464202944, -5, 178.7010002615
307, -13.22271824079, -5, 182.3612542993
308, -6.217568727888, -5, 181.1843201204
309, -15.03503925551, -5, 185.291881449
310, -16.37478521766, -5, 190.291881449
311, -10.9372494206, -5, 185.6531357483
312, -16.19042334427, -5, 193.6394964291
313, -14.85067738212, -5, 198.6394964291
314, -12.56520856193, -5, 191.9313778781
315, -13.30365323284, -5, 201.5450971257
316, -9.643399194997, -5, 205.2053511635
317, -10.83382253927, -5, 198.1845935548
318, -6.379438711995, -5, 202.8156798796
319, 8.1028473158, -5, 198.5624642029
320, 6.638745700663, -5, 200.0265658181
321, 10.17693417893, -5, 193.6551045249
322, 9.641035794069, -5, 195.6551045249
323, 9.762605335079, -5, 188.3681629467
324, 10.29850371994, -5, 190.3681629467
325, 6.666666666667, -5, 183.8692317182
326, 8.130768281804, -5, 185.3333333333
327, 1.631837053275, -5, 181.7014962801
328, 3.631837053275, -5, 182.2373946649
329, -3.655104524945, -5, 182.3589642059
330, -1.655104524945, -5, 181.8230658211
331, -8.026565818081, -5, 185.3612542993
332, -6.562464202943, -5, 183.8971526842
333, -10.37478521766, -5, 190.291881449
334, -9.838886832798, -5, 188.291881449
335, -9.654524959411, -5, 195.6394964291
336, -10.19042334427, -5, 193.6394964291
337, -6.643399194997, -5, 200.0091987408
338, -8.107500810134, -5, 198.5450971257
339, -7.751173309934, 0.0004090689846006, 193.9797253141
340, -5.900629000126, 0.008584387974766, 197.4020900958
341, 5.900629000126, 0.008584387974766, 197.4020900958
342, 7.751173309934, 0.0004090689846006, 193.9797253141
343, -7.727406610313, 0, 189.9294476392
344, -5.656854249492, 0, 186.3431457505
345, -2.07055236082, 3.333333333333, 199.7274066103
346, -3.330387815149, 0.3820363689807, 199.2738240975
347, 3.330387815149, 0.3820363689807, 199.2738240975
348, 2.07055236082, 3.333333333333, 199.7274066103
349, 1.816621978181, -2.083765626184, 199.7910130656
350, -1.816621978181, -2.083765626184, 199.7910130656
351, -2.07055236082, 0, 184.2725933897
352, 2.07055236082, 0, 184.2725933897
353, 5.656854249492, -8.881784197001e-16, 186.3431457505
354, 7.727406610313, 0, 189.9294476392
355, 1.04420953776, 4.166666666667, 199.931558891
356, 3.061467458921, 4.166666666667, 199.3910362601
357, -1.04420953776, 4.166666666667, 199.931558891
358, -3.061467458921, 4.166666666667, 199.3910362601
359, -1.04420953776, 2.5, 199.931558891
360, 1.04420953776, 2.5, 199.931558891
361, 0.914301775996, -3.541882813092, 199.9475815354
362, 2.940133162333, -3.541882813092, 199.440135549
363, -0.914301775996, -3.541882813092, 199.9475815354
364, -2.940133162333, -3.541882813092, 199.440135549
365, 0.914301775996, -1.875216146425, 199.9475815354
366, -0.914301775996, -1.875216146425, 199.9475815354
367, 5.008779190018, 2.504292193987, 198.237958883
368, 6.452611739297, 2.504292193987, 196.7290381413
369, 4.709433607583, 0.1953103784777, 198.4669339795
370, 3.669265570394, 2.69101818449, 199.1089021778
371, 2.709976562646, 1.857684851157, 199.5270197974
372, 7.408873150076, 2.500204534492, 195.018045501
373, 7.937549574002, 2.500204534492, 192.9976506203
374, 7.037120984672, 0.004496728479683, 195.8051186903
375, 7.93155889099, 2.5, 190.9557904622
376, 7.39103626009, 2.5, 188.9385325411
377, 7.999862273683, 0.0002045344923003, 191.9530574595
378, 6.34682672233, 2.5, 187.1299085679
379, 4.87009143207, 2.5, 185.6531732777
380, 6.928203230275, 0, 188
381, 3.061467458921, 2.5, 184.6089637399
382, 1.04420953776, 2.5, 184.068441109
383, 4, 0, 185.0717967697
384, -3.061467458921, 2.5, 184.6089637399
385, -1.04420953776, 2.5, 184.068441109
386, -4.165284670629e-14, 0, 184
387, -4.87009143207, 2.5, 185.6531732777
388, -6.34682672233, 2.5, 187.1299085679
389, -4, 0, 185.0717967697
390, -7.39103626009, 2.5, 188.9385325411
391, -7.93155889099, 2.5, 190.9557904622
392, -6.928203230276, 0, 188
393, -7.937549574002, 2.500204534492, 192.9976506203
394, -7.408873150076, 2.500204534492, 195.018045501
395, -7.999862273683, 0.0002045344923003, 191.9530574595
396, -6.452611739297, 2.504292193987, 196.7290381413
397, -5.008779190018, 2.504292193987, 198.237958883
398, -7.037120984672, 0.004496728479683, 195.8051186903
399, -4.709433607583, 0.1953103784777, 198.4669339795
400, -3.669265570394, 2.69101818449, 199.1089021778
401, -2.709976562646, 1.857684851157, 199.5270197974
402, 6.452611739297, -2.495707806013, 196.7290381413
403, 5.008779190018, -2.495707806013, 198.237958883
404, 3.669265570394, -2.30898181551, 199.1089021778
405, 2.586464490448, -0.8508646286017, 199.570350153
406, 7.937549574002, -2.499795465508, 192.9976506203
407, 7.408873150076, -2.499795465508, 195.018045501
408, 7.39103626009, -2.5, 188.9385325411
409, 7.93155889099, -2.5, 190.9557904622
410, 4.87009143207, -2.5, 185.6531732777
411, 6.34682672233, -2.5, 187.1299085679
412, 1.04420953776, -2.5, 184.068441109
413, 3.061467458921, -2.5, 184.6089637399
414, -1.04420953776, -2.5, 184.068441109
415, -3.061467458921, -2.5, 184.6089637399
416, -6.34682672233, -2.5, 187.1299085679
417, -4.87009143207, -2.5, 185.6531732777
418, -7.93155889099, -2.5, 190.9557904622
419, -7.39103626009, -2.5, 188.9385325411
420, -7.408873150076, -2.499795465508, 195.018045501
421, -7.937549574002, -2.499795465508, 192.9976506203
422, -5.008779190018, -2.495707806013, 198.237958883
423, -6.452611739297, -2.495707806013, 196.7290381413
424, -3.669265570394, -2.30898181551, 199.1089021778
425, -2.586464490448, -0.8508646286017, 199.570350153
426, 0.914301775996, -0.2085494797587, 199.9475815354
427, -0.914301775996, -0.2085494797587, 199.9475815354
428, -1.704319104564, 1.024351517824, 199.8163480213
429, 1.704319104564, 1.024351517824, 199.8163480213
430, -5, 0, 114
431, 5, 0, 114
432, 0, -3, 114
433, 0, 3, 114
434, 0, 0, 48
435, -2.5, 1.5, 48
436, -2.5, -1.5, 48
437, 2.5, -1.5, 48
438, 2.5, 1.5, 48
439, 0, 0, 180
440, -2.5, -1.5, 180
441, -2.5, 1.5, 180
442, 2.5, -1.5, 180
443, 2.5, 1.5, 180
444, 7.246933262871, 0, 75.04592313609
445, -7.246933262871, 0, 75.04592313609
446, 14, 0, 72.24871130596
447, -14, 0, 72.24871130596
448, 19.79898987322, 0, 67.79898987322
449, 24.24871130596, 0, 62
450, 27.04592313609, 0, 55.24693326287
451, 28, 0, 48
452, 27.04592313609, 0, 40.75306673713
453, 19.79898987322, 0, 28.20101012678
454, 24.24871130596, 0, 34
455, 7.24693326287, 0, 20.95407686391
456, -1.706539592236e-13, 0, 20
457, 14, 0, 23.75128869404
458, -7.246933262871, 0, 20.95407686391
459, -14, 0, 23.75128869404
460, -19.79898987322, 0, 28.20101012678
461, -24.24871130596, 0, 34
462, -27.04592313609, 0, 40.75306673713
463, -27.04592313609, 0, 55.24693326287
464, -24.24871130596, 0, 62
465, -28, 0, 48
466, -19.79898987322, 0, 67.79898987322
467, -7.174332940777e-15, 5, 48
468, -3.751288694036, 5, 62
469, -14, 5, 51.75128869404
470, 3.751288694036, 5, 34
471, 14, 5, 44.24871130596
472, 10.24871130596, 5, 58.24871130596
473, -10.24871130596, 5, 37.75128869404
474, 5.124355652982, 5, 67.12435565298
475, -14, 5, 62
476, 19.12435565298, 5, 53.12435565298
477, 14, 5, 34
478, 9.562177826491, 5, 69.68653347947
479, 2.562177826491, 5, 71.56217782649
480, -1.875644347018, 5, 69
481, -8.875644347018, 5, 67.12435565298
482, 0.6865334794732, 5, 64.56217782649
483, 17.24871130596, 5, 60.12435565298
484, 12.12435565298, 5, 65.24871130596
485, 7.686533479473, 5, 62.68653347947
486, 23.56217782649, 5, 50.56217782649
487, 21.68653347947, 5, 57.56217782649
488, 14.68653347947, 5, 55.68653347947
489, 19.12435565298, 5, 39.12435565298
490, 21, 5, 46.12435565298
491, 16.56217782649, 5, 48.68653347947
492, 14, 5, 28.87564434702
493, 19.12435565298, 5, 34
494, 14, 5, 39.12435565298
495, 1.875644347018, 5, 27
496, 8.875644347018, 5, 28.87564434702
497, 8.875644347018, 5, 34
498, -12.12435565298, 5, 30.75128869404
499, -5.124355652982, 5, 28.87564434702
500, -3.248711305964, 5, 35.87564434702
501, -17.24871130596, 5, 35.87564434702
502, -21, 5, 49.87564434702
503, -19.12435565298, 5, 42.87564434702
504, -12.12435565298, 5, 44.75128869404
505, -19.12435565298, 5, 56.87564434702
506, -14, 5, 67.12435565298
507, -19.12435565298, 5, 62
508, -14, 5, 56.87564434702
509, -8.875644347018, 5, 62
510, -7, 5, 49.87564434702
511, -8.875644347018, 5, 56.87564434702
512, -1.875644347018, 5, 55
513, 3.248711305964, 5, 60.12435565298
514, 5.124355652982, 5, 53.12435565298
515, -5.124355652982, 5, 42.87564434702
516, 7, 5, 46.12435565298
517, 8.875644347018, 5, 39.12435565298
518, 1.875644347018, 5, 41
519, 12.12435565298, 5, 51.24871130596
520, -7.174332940777e-15, -5, 48
521, -3.751288694036, -5, 62
522, -14, -5, 51.75128869404
523, 3.751288694036, -5, 34
524, 14, -5, 44.24871130596
525, 10.24871130596, -5, 58.24871130596
526, -10.24871130596, -5, 37.75128869404
527, 5.124355652982, -5, 67.12435565298
528, -14, -5, 62
529, 19.12435565298, -5, 53.12435565298
530, 14, -5, 34
531, 2.562177826491, -5, 71.56217782649
532, 9.562177826491, -5, 69.68653347947
533, -8.875644347018, -5, 67.12435565298
534, -1.875644347018, -5, 69
535, 0.6865334794732, -5, 64.56217782649
536, 12.12435565298, -5, 65.24871130596
537, 17.24871130596, -5, 60.12435565298
538, 7.686533479473, -5, 62.68653347947
539, 21.68653347947, -5, 57.56217782649
540, 23.56217782649, -5, 50.56217782649
541, 14.68653347947, -5, 55.68653347947
542, 21, -5, 46.12435565298
543, 19.12435565298, -5, 39.12435565298
544, 16.56217782649, -5, 48.68653347947
545, 19.12435565298, -5, 34
546, 14, -5, 28.87564434702
547, 14, -5, 39.12435565298
548, 8.875644347018, -5, 28.87564434702
549, 1.875644347018, -5, 27
550, 8.875644347018, -5, 34
551, -5.124355652982, -5, 28.87564434702
552, -12.12435565298, -5, 30.75128869404
553, -3.248711305964, -5, 35.87564434702
554, -17.24871130596, -5, 35.87564434702
555, -19.12435565298, -5, 42.87564434702
556, -21, -5, 49.87564434702
557, -12.12435565298, -5, 44.75128869404
558, -19.12435565298, -5, 56.87564434702
559, -19.12435565298, -5, 62
560, -14, -5, 67.12435565298
561, -14, -5, 56.87564434702
562, -8.875644347018, -5, 62
563, -1.875644347018, -5, 55
564, -8.875644347018, -5, 56.87564434702
565, -7, -5, 49.87564434702
566, 5.124355652982, -5, 53.12435565298
567, 3.248711305964, -5, 60.12435565298
568, -5.124355652982, -5, 42.87564434702
569, 1.875644347018, -5, 41
570, 8.875644347018, -5, 39.12435565298
571, 7, -5, 46.12435565298
572, 12.12435565298, -5, 51.24871130596
573, 15.28761091622, -7.216767801455e-17, 195.8350285147
574, 9.274950641241, 0, 202.7846252033
575, 1.879065298762, 1.7763568394e-15, 204.5912207106
576, 16.30405949595, -2.5, 198.9175142573
577, 17.64380545811, -2.5, 193.9175142573
578, 16.30405949595, 2.5, 198.9175142573
579, 17.64380545811, 2.5, 193.9175142573
580, 5.701942847077, 2.5, 183.4696300282
581, 7.495093791413, 2.5, 184.5049062086
582, 5.701942847077, -2.5, 183.4696300282
583, 7.495093791413, -2.5, 184.5049062086
584, 9.333333333333, 0, 182.6666666667
585, 0.5965608728647, 2.5, 181.8377929749
586, 2.667113233685, 2.5, 181.8377929749
587, 0.5965608728647, -2.5, 181.8377929749
588, 2.667113233685, -2.5, 181.8377929749
589, 3.26367410655, 0, 179.4029925601
590, -7.39089132769, -2.5, 184.5328271746
591, -9.124928405887, 0, 182.7225085987
592, -7.39089132769, 2.5, 184.5328271746
593, -5.597740383354, 2.5, 183.4975509942
594, -5.597740383354, -2.5, 183.4975509942
595, 10.1622070251, 2.5, 189.3328867663
596, 10.17409037491, 2.500204534492, 191.3580256038
597, 10.17409037491, -2.499795465508, 191.3580256038
598, 12.59700743988, 0, 188.7363258935
599, 10.1622070251, -2.5, 189.3328867663
600, -9.140737844336, 2.504292193987, 196.340541477
601, -10.06600999924, 2.500204534492, 194.6293590862
602, -10.06600999924, -2.499795465508, 194.6293590862
603, -12.38084668855, 0, 195.2789928582
604, -9.140737844336, -2.495707806013, 196.340541477
605, -6.308593102571, 2.69101818449, 200.1820091744
606, -3.401233424572, 2.69101818449, 201.9074948027
607, -3.472079033996, 0, 204.5411655079
608, -3.401233424572, -2.30898181551, 201.9074948027
609, -6.379438711995, 0, 202.8156798796
610, 6.298503719941, 0, 181.0348296134
611, -6.308593102571, -2.30898181551, 200.1820091744
612, -9.286798389993, 0, 201.0901942513
613, 12.47543789887, 0, 192.0232674717
614, 10.0525208339, -2.499795465508, 194.644967182
615, -6.217568727888, 0, 181.1843201204
616, -2.690380705355, 2.5, 181.9593625159
617, -2.690380705355, -2.5, 181.9593625159
618, -0.02326747167005, 0, 179.5245621011
619, -7.59371369506, 2.504292193987, 199.2461421735
620, -10.83382253927, 0, 198.1845935548
621, -7.59371369506, -2.495707806013, 199.2461421735
622, 10.0525208339, 2.500204534492, 194.644967182
623, 12.35386835786, 0, 195.3102090499
624, -3.31020904989, 0, 179.6461316421
625, 0.9395326493808, 0.8333333333333, 202.2956103553
626, 0.9395326493808, -0.8333333333333, 202.2956103553
627, 0.03122166029049, -1.041882813092, 202.1911168881
628, -2.771315697408, 4.166666666667, 202.1342860591
629, -1.736039516998, 3.333333333333, 202.2705827539
630, -0.7256612581935, 0.1910181844904, 201.932522404
631, -12.74957043532, 0, 188.583762898
632, -16.37478521766, 0, 190.291881449
633, -12.56520856193, 0, 191.9313778781
634, -1.736039516998, 0, 208.2705827539
635, -0.7965068676172, 2.5, 204.5661931092
636, -0.7965068676172, -2.5, 204.5661931092
637, 0.9395326493808, 2.5, 208.2956103553
638, 9.126930844688, 2.5, 187.539735822
639, 9.126930844688, -2.5, 187.539735822
640, -8.4261675081, -2.5, 186.3259781189
641, -8.4261675081, 2.5, 186.3259781189
642, -9.643399194997, 0, 205.2053511635
643, -14.85067738212, 0, 198.6394964291
644, -2.644350506088, -3.541882813092, 202.1660892867
645, -10.05412664943, 2.5, 192.6042202487
646, -10.05412664943, -2.5, 192.6042202487
647, 2.743394731404, 4.166666666667, 202.2384885228
648, 3.373312458568, 2.69101818449, 202.0116972664
649, 9.127248678994, 2.504292193987, 196.3561495728
650, 7.587789820683, 0.004292193987383, 200.0933576496
651, 10.81440949955, 2.5, 199.0474171266
652, 8.513061975587, 0.0002045344923003, 198.3821752587
653, 9.127248678994, -2.495707806013, 196.3561495728
654, 10.81440949955, -2.5, 199.0474171266
655, -15.03503925551, 0, 185.291881449
656, -6.736039516998, 0, 206.9308367918
657, -13.30365323284, 0, 201.5450971257
658, -16.19042334427, 0, 193.6394964291
659, 5.545786309711, -1.041882813092, 201.2878191345
660, 6.302669228195, 0.1910181844904, 201.0292246504
661, 6.63747532062, -2.5, 200.8564142168
662, 10.96517038661, 0, 185.7014962801
663, 13.32692070451, 0, 182.3333333333
664, 9.666666666667, 0, 178.6730792955
665, -10.9372494206, 0, 185.6531357483
666, -10.23848852282, -2.5, 189.2566052686
667, -10.23848852282, 2.5, 189.2566052686
668, 6.631837053275, 0, 177.0412422422
669, -13.22271824079, 0, 182.3612542993
670, 14.95875775779, 0, 185.3681629467
671, 1.631837053275, 0, 175.7014962801
672, -9.562464202944, 0, 178.7010002615
673, -6.655104524945, 0, 177.1628117832
674, -1.655104524945, 0, 175.8230658211
675, 13.82073963704, -2.5, 195.5726187823
676, 13.82073963704, 2.5, 195.5726187823
677, 12.28128077873, -3.608383900728e-17, 199.309826859
678, 7.589060200726, -2.495707806013, 199.2635092508
679, 0.9395326493808, -2.5, 208.2956103553
680, 7.589060200726, 2.504292193987, 199.2635092508
681, 16.29850371994, 0, 190.3681629467
682, 2.616429540084, -3.541882813092, 202.2702917505
683, 6.345593871614, -2.5, 203.7670978193
684, 9.276221021283, -2.5, 201.9547768046
685, 9.276221021283, 2.5, 201.9547768046
686, 6.303939608237, 2.69101818449, 200.1993762517
687, 13.29772935846, 2.5, 202.3923126017
688, 9.63747532062, -2.5, 206.0525666395
689, 13.29772935846, -2.5, 202.3923126017
690, 1.974808829791, 1.666666666667, 202.1593136604
691, 2.647651200375, 2.5, 204.6703955729
692, 2.604726556955, 0.1910181844904, 201.932522404
693, 5.939532649381, 2.5, 206.9558643931
694, 0.9395326493808, 2.5, 202.2956103553
695, 1.847843638471, -1.041882813092, 202.1911168881
696, 9.63747532062, 2.5, 206.0525666395
697, 5.939532649381, -2.5, 206.9558643931
698, 6.345593871614, 2.5, 203.7670978193
699, 5.577007970001, 8.881784197001e-16, 203.687922957
700, 2.647651200375, -2.5, 204.6703955729
701, 0.9395326493808, -2.5, 202.2956103553
702, 13.94230917805, -2.5, 192.2856772041
703, 13.94230917805, 2.5, 192.2856772041
704, -2.5, -1.5, 114
705, -2.5, 1.5, 114
706, 0, 0, 114
707, 2.5, 1.5, 114
708, 2.5, -1.5, 114
709, 8.975377643885, -0.8976663497507, 65.49317875684
710, 5.93537837674, -0.01296017741486, 25.92144332982
711, -6.011920087684, -0.5, 28.36320878172
712, -3.005960043842, -2.75, 24.18160439086
713, -1.130315696824, -2.75, 31.18160439086
714, -8.130315696824, -2.75, 33.05724873788
715, -10.00596004384, -2.75, 26.05724873788
716, 8.875644347018, 0, 28.87564434702
717, 3.751288694036, 0, 34
718, 4.843333535388, 2.493519911293, 29.96072166491
719, 4.843333535388, -2.506480088707, 29.96072166491
720, 9.96768918837, -2.506480088707, 24.83636601193
721, 9.96768918837, 2.493519911293, 24.83636601193
722, 5.124355652982, 0, 67.12435565298
723, 9.562177826491, 0, 69.68653347947
724, 11.48768882194, -2.948833174875, 68.8709450314
725, 7.049866648434, 2.051166825125, 66.30876720491
726, 7.049866648434, -2.948833174875, 66.30876720491
727, 1.875644347018, 0, 27
728, 2.96768918837, 2.493519911293, 22.96072166491
729, -12.12435565298, 0, 30.75128869404
730, -8.130315696824, 2.25, 33.05724873788
731, -10.00596004384, 2.25, 26.05724873788
732, 2.96768918837, -2.506480088707, 22.96072166491
733, 14, 0, 28.87564434702
734, 8.875644347018, 0, 34
735, 14, 0, 34
736, 19.12435565298, 0, 53.12435565298
737, 14.68653347947, 0, 55.68653347947
738, 16.56217782649, 0, 48.68653347947
739, 14, 0, 39.12435565298
740, -8.875644347018, 0, 62
741, -14, 0, 67.12435565298
742, -14, 0, 62
743, 23.56217782649, 0, 50.56217782649
744, -10.24871130596, 0, 37.75128869404
745, 7, 0, 46.12435565298
746, 1.875644347018, 0, 41
747, 5.124355652982, 0, 53.12435565298
748, 8.875644347018, 0, 39.12435565298
749, 12.12435565298, 0, 51.24871130596
750, 10.24871130596, 0, 58.24871130596
751, -1.875644347018, 0, 55
752, 14, 0, 44.24871130596
753, 3.248711305964, 0, 60.12435565298
754, -3.751288694036, 0, 62
755, 2.562177826491, 0, 71.56217782649
756, 21.68653347947, 0, 57.56217782649
757, 19.12435565298, 0, 34
758, -19.12435565298, 0, 62
759, 0.6865334794732, 0, 64.56217782649
760, -1.875644347018, 0, 69
761, 11.48768882194, 2.051166825125, 68.8709450314
762, -8.875644347018, 0, 67.12435565298
763, 21, 0, 46.12435565298
764, -3.248711305964, 0, 35.87564434702
765, 19.12435565298, 0, 39.12435565298
766, 9.612044474925, -2.948833174875, 61.8709450314
767, -14, 0, 56.87564434702
768, -21, 0, 49.87564434702
769, 17.24871130596, 0, 60.12435565298
770, -8.875644347018, 0, 56.87564434702
771, -7, 0, 49.87564434702
772, -5.124355652982, 0, 42.87564434702
773, -19.12435565298, 0, 42.87564434702
774, -14, 0, 51.75128869404
775, -19.12435565298, 0, 56.87564434702
776, -12.12435565298, 0, 44.75128869404
777, -17.24871130596, 0, 35.87564434702
778, 9.612044474925, 2.051166825125, 61.8709450314
779, 16.61204447492, -2.948833174875, 63.74658937842
780, 2.612044474925, 2.051166825125, 63.74658937842
781, 2.612044474925, -2.948833174875, 63.74658937842
782, -3.005960043842, 2.25, 24.18160439086


** Volume elements
*Element, TYPE=C3D10, ELSET=Evolumes
388, 41, 40, 16, 573, 52, 179, 177, 577, 576, 578
389, 41, 16, 17, 573, 177, 28, 178, 577, 578, 579
390, 353, 352, 196, 268, 383, 580, 581, 583, 582, 584
391, 352, 351, 202, 274, 386, 585, 586, 588, 587, 589
392, 201, 344, 273, 351, 592, 590, 591, 593, 389, 594
393, 203, 342, 354, 275, 596, 377, 595, 598, 597, 599
394, 200, 339, 340, 272, 601, 398, 600, 603, 602, 604
395, 346, 197, 198, 269, 606, 246, 605, 608, 607, 609
396, 274, 196, 352, 268, 610, 580, 588, 302, 584, 582
397, 198, 270, 346, 269, 612, 611, 605, 609, 318, 608
398, 196, 352, 202, 274, 580, 586, 230, 610, 588, 589
399, 342, 203, 278, 275, 596, 613, 614, 597, 598, 296
400, 204, 201, 273, 351, 236, 591, 615, 616, 593, 594
401, 276, 202, 351, 274, 618, 585, 617, 305, 589, 587
402, 272, 340, 198, 270, 604, 619, 620, 317, 621, 612
403, 278, 342, 206, 203, 614, 622, 623, 613, 596, 224
404, 276, 204, 273, 351, 624, 615, 308, 617, 616, 594
405, 351, 276, 204, 202, 617, 624, 616, 585, 618, 233
406, 200, 340, 198, 272, 600, 619, 245, 603, 604, 620
407, 198, 340, 346, 270, 619, 399, 605, 612, 621, 611
408, 108, 109, 350, 575, 111, 427, 366, 626, 625, 627
409, 345, 346, 109, 197, 401, 428, 359, 628, 606, 629
410, 109, 346, 350, 575, 428, 425, 427, 625, 630, 627
411, 199, 47, 271, 272, 632, 310, 631, 633, 312, 314
412, 269, 197, 1, 575, 607, 209, 634, 636, 635, 637
413, 353, 65, 354, 203, 378, 376, 380, 638, 252, 595
414, 354, 88, 353, 275, 408, 411, 380, 599, 323, 639
415, 344, 273, 92, 343, 590, 331, 416, 392, 640, 419
416, 343, 69, 344, 201, 390, 388, 392, 641, 260, 592
417, 269, 198, 270, 49, 609, 612, 318, 281, 642, 316
418, 198, 24, 200, 272, 244, 240, 245, 620, 643, 603
419, 269, 350, 346, 575, 644, 425, 608, 636, 627, 630
420, 346, 95, 350, 269, 424, 364, 425, 608, 287, 644
421, 342, 87, 354, 275, 406, 409, 377, 597, 324, 599
422, 64, 342, 354, 203, 373, 377, 375, 251, 596, 595
423, 343, 339, 70, 200, 395, 393, 391, 645, 601, 263
424, 272, 343, 339, 93, 646, 395, 602, 336, 418, 421
425, 195, 348, 62, 347, 647, 356, 213, 648, 371, 370
426, 206, 341, 342, 574, 649, 374, 622, 651, 650, 652
427, 342, 341, 278, 574, 374, 653, 614, 652, 650, 654
428, 72, 346, 345, 197, 400, 401, 358, 214, 606, 628
429, 278, 206, 342, 574, 623, 622, 614, 654, 651, 652
430, 272, 339, 340, 94, 602, 398, 604, 335, 420, 423
431, 199, 46, 271, 47, 655, 309, 631, 632, 58, 310
432, 340, 71, 339, 200, 396, 394, 398, 600, 264, 601
433, 341, 278, 86, 342, 653, 322, 402, 374, 614, 407
434, 206, 341, 63, 342, 649, 368, 249, 622, 374, 372
435, 25, 1, 269, 197, 37, 634, 656, 210, 209, 607
436, 48, 270, 198, 49, 315, 612, 657, 60, 316, 642
437, 24, 23, 200, 272, 35, 241, 240, 643, 658, 603
438, 347, 349, 85, 574, 405, 362, 404, 660, 659, 661
439, 196, 275, 268, 42, 662, 299, 584, 663, 295, 297
440, 43, 196, 274, 268, 664, 610, 300, 298, 584, 302
441, 46, 273, 199, 271, 307, 665, 655, 309, 311, 631
442, 197, 346, 109, 575, 606, 428, 629, 635, 630, 625
443, 65, 353, 196, 203, 378, 581, 253, 252, 638, 227
444, 268, 353, 88, 275, 583, 411, 326, 299, 639, 323
445, 271, 92, 273, 343, 334, 331, 311, 666, 419, 640
446, 69, 343, 199, 201, 390, 667, 261, 260, 641, 239
447, 196, 202, 43, 274, 230, 668, 664, 610, 589, 300
448, 46, 199, 273, 201, 655, 665, 307, 669, 239, 591
449, 275, 196, 203, 42, 662, 227, 598, 295, 663, 670
450, 198, 197, 25, 269, 246, 210, 243, 609, 607, 656
451, 199, 23, 272, 200, 237, 658, 633, 242, 241, 603
452, 202, 276, 44, 274, 618, 303, 671, 589, 305, 301
453, 273, 204, 21, 201, 615, 231, 672, 591, 236, 235
454, 48, 272, 198, 270, 313, 620, 657, 315, 317, 612
455, 273, 276, 21, 204, 308, 673, 672, 615, 624, 231
456, 204, 276, 44, 202, 624, 303, 674, 233, 618, 671
457, 343, 70, 199, 200, 391, 262, 667, 645, 263, 242
458, 343, 272, 271, 93, 646, 314, 666, 418, 336, 333
459, 95, 346, 340, 270, 424, 399, 422, 337, 611, 621
460, 346, 197, 269, 575, 606, 607, 608, 630, 635, 636
461, 206, 278, 573, 574, 623, 675, 676, 651, 654, 677
462, 87, 342, 278, 275, 406, 614, 321, 324, 597, 296
463, 342, 64, 206, 203, 373, 250, 622, 596, 251, 224
464, 18, 203, 196, 42, 222, 227, 226, 181, 670, 663
465, 199, 46, 22, 201, 655, 188, 238, 239, 669, 234
466, 3, 345, 109, 197, 357, 359, 112, 215, 628, 629
467, 199, 272, 23, 47, 633, 658, 237, 632, 312, 193
468, 272, 94, 340, 270, 335, 423, 604, 317, 338, 621
469, 71, 340, 198, 200, 396, 619, 265, 264, 600, 245
470, 198, 269, 25, 49, 609, 656, 243, 642, 281, 175
471, 277, 278, 86, 341, 293, 322, 319, 678, 653, 402
472, 2, 269, 1, 575, 282, 634, 38, 679, 636, 637
473, 206, 205, 63, 341, 221, 248, 249, 649, 680, 368
474, 346, 270, 95, 269, 611, 337, 424, 608, 318, 287
475, 21, 276, 273, 45, 673, 308, 672, 189, 304, 306
476, 198, 48, 24, 272, 657, 192, 244, 620, 313, 643
477, 42, 196, 43, 268, 663, 664, 54, 297, 584, 298
478, 43, 202, 44, 274, 668, 671, 55, 300, 589, 301
479, 17, 275, 203, 42, 681, 598, 223, 180, 295, 670
480, 46, 273, 21, 201, 307, 672, 187, 669, 591, 235
481, 44, 21, 276, 204, 185, 673, 303, 674, 231, 624
482, 85, 349, 267, 574, 362, 682, 284, 661, 659, 683
483, 277, 278, 341, 574, 293, 653, 678, 684, 654, 650
484, 206, 205, 341, 574, 221, 680, 649, 651, 685, 650
485, 341, 347, 85, 574, 369, 404, 403, 650, 660, 661
486, 195, 62, 205, 347, 213, 247, 218, 648, 370, 686
487, 72, 340, 346, 198, 397, 399, 400, 266, 619, 605
488, 39, 16, 40, 574, 176, 179, 51, 688, 687, 689
489, 205, 347, 62, 341, 686, 370, 247, 680, 369, 367
490, 72, 198, 346, 197, 266, 605, 400, 214, 246, 606
491, 21, 44, 276, 45, 185, 303, 673, 189, 56, 304
492, 22, 23, 46, 199, 34, 190, 188, 238, 237, 655
493, 46, 199, 23, 47, 655, 237, 190, 58, 632, 193
494, 196, 19, 18, 42, 225, 30, 226, 663, 182, 181
495, 272, 23, 48, 24, 658, 191, 313, 643, 35, 192
496, 272, 48, 23, 47, 313, 191, 658, 312, 59, 193
497, 195, 348, 347, 575, 647, 371, 648, 691, 690, 692
498, 21, 273, 46, 45, 672, 307, 187, 189, 306, 57
499, 2, 25, 269, 49, 173, 656, 282, 61, 175, 281
500, 21, 22, 46, 201, 33, 188, 187, 235, 234, 669
501, 203, 18, 17, 42, 222, 29, 223, 670, 181, 180
502, 25, 269, 1, 2, 656, 634, 37, 173, 282, 38
503, 48, 198, 25, 49, 657, 243, 194, 60, 642, 175
504, 198, 25, 24, 48, 243, 36, 244, 657, 194, 192
505, 15, 2, 1, 575, 172, 38, 26, 693, 679, 637
506, 277, 40, 278, 574, 289, 291, 293, 684, 689, 654
507, 15, 1, 195, 575, 26, 208, 207, 693, 637, 691
508, 3, 197, 109, 575, 215, 629, 112, 694, 635, 625
509, 278, 40, 573, 574, 291, 576, 675, 654, 689, 677
510, 196, 43, 202, 19, 664, 668, 230, 225, 183, 229
511, 20, 204, 44, 202, 232, 674, 186, 228, 233, 671
512, 353, 196, 66, 65, 581, 254, 379, 378, 253, 77
513, 343, 69, 199, 70, 390, 261, 667, 391, 81, 262
514, 343, 271, 92, 93, 666, 334, 419, 418, 333, 104
515, 353, 88, 89, 268, 411, 100, 410, 583, 326, 325
516, 108, 349, 109, 575, 365, 426, 111, 626, 695, 625
517, 94, 95, 340, 270, 106, 422, 423, 338, 337, 621
518, 89, 352, 274, 90, 413, 588, 328, 101, 412, 327
519, 67, 202, 66, 352, 256, 255, 78, 382, 586, 381
520, 64, 354, 65, 203, 375, 376, 76, 251, 595, 252
521, 91, 273, 92, 344, 332, 331, 103, 417, 590, 416
522, 344, 201, 69, 68, 592, 260, 388, 387, 259, 80
523, 354, 87, 88, 275, 409, 99, 408, 599, 324, 323
524, 347, 348, 109, 575, 371, 360, 429, 692, 690, 625
525, 16, 39, 15, 574, 176, 174, 27, 687, 688, 696
526, 340, 198, 72, 71, 619, 266, 397, 396, 265, 83
527, 277, 86, 85, 341, 319, 97, 320, 678, 402, 403
528, 62, 63, 205, 341, 74, 248, 247, 367, 368, 680
529, 85, 277, 341, 574, 320, 678, 403, 661, 684, 650
530, 351, 91, 276, 90, 415, 329, 617, 414, 102, 330
531, 68, 204, 67, 351, 258, 257, 79, 384, 616, 385
532, 21, 44, 20, 204, 185, 186, 32, 231, 674, 232
533, 42, 43, 196, 19, 54, 664, 663, 182, 183, 225
534, 86, 342, 278, 87, 407, 614, 322, 98, 406, 321
535, 206, 342, 63, 64, 622, 372, 249, 250, 373, 75
536, 17, 41, 275, 42, 178, 294, 681, 180, 53, 295
537, 202, 20, 19, 43, 228, 31, 229, 668, 184, 183
538, 43, 44, 202, 20, 55, 671, 668, 184, 186, 228
539, 39, 2, 15, 575, 50, 172, 174, 697, 679, 693
540, 3, 62, 195, 348, 73, 213, 212, 355, 356, 647
541, 339, 94, 272, 93, 420, 335, 602, 421, 105, 336
542, 71, 70, 339, 200, 82, 393, 394, 264, 263, 601
543, 205, 195, 347, 574, 218, 648, 686, 685, 698, 660
544, 1, 197, 195, 575, 209, 211, 208, 637, 635, 691
545, 195, 347, 574, 575, 648, 660, 698, 691, 692, 699
546, 267, 2, 39, 575, 279, 50, 280, 700, 679, 697
547, 15, 195, 574, 575, 207, 698, 696, 693, 691, 699
548, 267, 39, 574, 575, 280, 688, 683, 700, 697, 699
549, 205, 347, 341, 574, 686, 369, 680, 685, 660, 650
550, 85, 267, 277, 574, 284, 290, 320, 661, 683, 684
551, 205, 206, 16, 574, 221, 220, 216, 685, 651, 687
552, 3, 72, 345, 197, 84, 358, 357, 215, 214, 628
553, 16, 206, 573, 574, 220, 676, 578, 687, 651, 677
554, 573, 40, 16, 574, 576, 179, 578, 677, 689, 687
555, 109, 349, 347, 575, 426, 405, 429, 625, 695, 692
556, 267, 85, 4, 349, 284, 96, 285, 682, 362, 361
557, 195, 197, 3, 575, 211, 215, 212, 691, 635, 694
558, 4, 269, 267, 575, 286, 283, 285, 701, 636, 700
559, 574, 39, 15, 575, 688, 174, 696, 699, 697, 693
560, 278, 40, 41, 573, 291, 52, 292, 675, 576, 577
561, 39, 40, 277, 574, 51, 289, 288, 688, 689, 684
562, 350, 95, 4, 269, 364, 107, 363, 644, 287, 286
563, 267, 269, 2, 575, 283, 282, 279, 700, 636, 679
564, 17, 16, 206, 573, 28, 220, 219, 579, 578, 676
565, 205, 16, 15, 574, 216, 27, 217, 685, 687, 696
566, 15, 195, 205, 574, 207, 218, 217, 696, 698, 685
567, 267, 39, 277, 574, 280, 288, 290, 683, 688, 684
568, 275, 573, 41, 17, 702, 577, 294, 681, 579, 178
569, 41, 573, 275, 278, 577, 702, 294, 292, 675, 296
570, 275, 203, 573, 17, 598, 703, 702, 681, 223, 579
571, 573, 203, 275, 278, 703, 598, 702, 675, 613, 296
572, 203, 206, 573, 17, 224, 676, 703, 223, 219, 579
573, 573, 206, 203, 278, 676, 224, 703, 675, 623, 613
574, 343, 272, 199, 271, 646, 633, 667, 666, 314, 631
575, 272, 343, 200, 339, 646, 645, 603, 602, 395, 601
576, 343, 272, 200, 199, 646, 603, 645, 667, 633, 242
577, 273, 343, 199, 271, 640, 667, 665, 311, 666, 631
578, 273, 343, 201, 199, 640, 641, 591, 665, 667, 239
579, 343, 273, 201, 344, 640, 591, 641, 392, 590, 592
580, 196, 275, 353, 268, 662, 639, 581, 584, 299, 583
581, 275, 353, 203, 196, 639, 638, 598, 662, 581, 227
582, 353, 275, 203, 354, 639, 598, 638, 380, 599, 595
583, 89, 352, 268, 274, 413, 582, 325, 328, 588, 302
584, 352, 89, 268, 353, 413, 325, 582, 383, 410, 583
585, 66, 196, 352, 202, 254, 580, 381, 255, 230, 586
586, 196, 66, 352, 353, 254, 381, 580, 581, 379, 383
587, 90, 274, 351, 352, 327, 587, 414, 412, 588, 386
588, 351, 274, 90, 276, 587, 327, 414, 617, 305, 330
589, 67, 202, 351, 204, 256, 585, 385, 257, 233, 616
590, 202, 67, 351, 352, 256, 385, 585, 586, 382, 386
591, 68, 351, 201, 204, 384, 593, 259, 258, 616, 236
592, 201, 351, 68, 344, 593, 384, 259, 592, 389, 387
593, 91, 351, 273, 344, 415, 594, 332, 417, 389, 590
594, 273, 351, 91, 276, 594, 415, 332, 308, 617, 329
595, 4, 575, 350, 269, 701, 627, 363, 286, 636, 644
596, 350, 575, 4, 108, 627, 701, 363, 366, 626, 110
597, 575, 574, 349, 347, 699, 659, 695, 692, 660, 405
598, 349, 574, 575, 267, 659, 699, 695, 682, 683, 700
599, 349, 575, 4, 267, 695, 701, 361, 682, 700, 285
600, 4, 575, 349, 108, 701, 695, 361, 110, 626, 365
601, 348, 575, 3, 109, 690, 694, 355, 360, 625, 112
602, 3, 575, 348, 195, 694, 690, 355, 212, 691, 647
603, 434, 7, 5, 439, 705, 114, 704, 706, 441, 440
604, 6, 434, 5, 10, 436, 704, 113, 121, 437, 432
605, 12, 7, 8, 434, 433, 115, 123, 438, 705, 435
606, 6, 8, 5, 434, 116, 430, 113, 436, 435, 704
607, 434, 8, 5, 7, 435, 430, 704, 705, 115, 114
608, 439, 9, 12, 11, 442, 431, 707, 443, 118, 119
609, 439, 7, 12, 434, 441, 433, 707, 706, 705, 438
610, 12, 7, 439, 11, 433, 441, 707, 119, 124, 443
611, 10, 12, 439, 9, 120, 707, 708, 117, 431, 442
612, 439, 12, 10, 434, 707, 120, 708, 706, 438, 437
613, 439, 5, 10, 9, 440, 432, 708, 442, 122, 117
614, 10, 5, 439, 434, 432, 440, 708, 437, 704, 706
615, 523, 154, 526, 711, 549, 551, 553, 713, 712, 714
616, 154, 155, 526, 711, 166, 552, 551, 712, 715, 714
617, 523, 470, 153, 710, 717, 716, 548, 719, 718, 720
618, 153, 470, 129, 710, 716, 496, 457, 720, 718, 721
619, 474, 149, 527, 709, 723, 532, 722, 725, 724, 726
620, 523, 130, 470, 710, 727, 495, 717, 719, 728, 718
621, 473, 155, 131, 711, 729, 459, 498, 730, 715, 731
622, 153, 129, 154, 710, 457, 455, 165, 720, 721, 732
623, 477, 523, 153, 530, 734, 548, 733, 735, 550, 546
624, 529, 472, 476, 471, 737, 488, 736, 738, 519, 491
625, 524, 523, 477, 530, 570, 734, 739, 547, 550, 735
626, 159, 475, 521, 528, 741, 740, 533, 560, 742, 562
627, 127, 471, 529, 476, 490, 738, 743, 486, 491, 736
628, 473, 526, 155, 711, 744, 552, 729, 730, 714, 715
629, 130, 523, 154, 710, 727, 549, 456, 728, 719, 732
630, 471, 467, 470, 520, 516, 518, 517, 745, 434, 746
631, 471, 472, 467, 520, 519, 514, 516, 745, 747, 434
632, 470, 520, 523, 524, 746, 569, 717, 748, 571, 570
633, 472, 471, 525, 520, 519, 749, 750, 747, 745, 566
634, 468, 467, 472, 520, 512, 514, 513, 751, 434, 747
635, 525, 520, 471, 524, 566, 745, 749, 572, 571, 752
636, 468, 472, 521, 520, 513, 753, 754, 751, 747, 563
637, 471, 520, 470, 524, 745, 746, 517, 752, 571, 748
638, 521, 472, 525, 520, 753, 750, 567, 563, 747, 566
639, 14, 149, 527, 474, 160, 532, 531, 755, 723, 722
640, 126, 529, 476, 127, 756, 736, 487, 138, 743, 486
641, 524, 477, 152, 530, 739, 757, 543, 547, 735, 545
642, 477, 530, 153, 152, 735, 546, 733, 757, 545, 164
643, 475, 159, 158, 528, 741, 170, 758, 742, 560, 559
644, 14, 527, 468, 474, 531, 759, 760, 755, 722, 482
645, 529, 126, 476, 472, 756, 487, 736, 737, 483, 488
646, 129, 130, 154, 710, 141, 456, 455, 721, 728, 732
647, 474, 125, 149, 709, 478, 446, 723, 725, 761, 724
648, 525, 472, 529, 471, 750, 737, 541, 749, 519, 738
649, 153, 477, 470, 523, 733, 497, 716, 548, 734, 717
650, 159, 521, 475, 468, 533, 740, 741, 762, 754, 509
651, 525, 471, 529, 524, 749, 738, 541, 572, 752, 544
652, 524, 477, 523, 470, 739, 734, 570, 748, 497, 717
653, 477, 470, 524, 471, 497, 748, 739, 494, 517, 752
654, 127, 529, 471, 524, 743, 738, 490, 763, 544, 752
655, 473, 130, 470, 523, 499, 495, 500, 764, 727, 717
656, 153, 154, 523, 710, 165, 549, 548, 720, 732, 719
657, 14, 468, 521, 159, 760, 754, 534, 171, 762, 533
658, 127, 471, 128, 524, 490, 489, 139, 763, 752, 765
659, 527, 149, 525, 709, 532, 536, 538, 726, 724, 766
660, 521, 475, 522, 528, 740, 767, 564, 562, 742, 561
661, 522, 133, 156, 157, 768, 462, 555, 556, 465, 168
662, 159, 468, 475, 135, 762, 509, 741, 447, 481, 506
663, 470, 129, 477, 153, 496, 492, 497, 716, 457, 733
664, 477, 128, 471, 524, 493, 489, 494, 739, 765, 752
665, 14, 468, 13, 474, 760, 480, 148, 755, 482, 479
666, 468, 14, 521, 527, 760, 534, 754, 759, 531, 535
667, 529, 525, 150, 472, 541, 537, 539, 737, 750, 769
668, 529, 524, 127, 151, 544, 763, 743, 540, 542, 451
669, 468, 521, 469, 520, 754, 770, 511, 751, 563, 771
670, 473, 523, 470, 520, 764, 717, 500, 772, 569, 746
671, 469, 467, 468, 520, 510, 512, 511, 771, 434, 751
672, 473, 470, 467, 520, 500, 518, 515, 772, 746, 434
673, 130, 129, 470, 710, 141, 496, 495, 728, 721, 718
674, 524, 151, 128, 127, 542, 452, 765, 763, 451, 139
675, 468, 14, 135, 159, 760, 445, 481, 762, 171, 447
676, 468, 13, 135, 14, 480, 147, 481, 760, 148, 445
677, 522, 475, 158, 528, 767, 758, 558, 561, 742, 559
678, 469, 468, 475, 521, 511, 509, 508, 770, 754, 740
679, 474, 14, 125, 13, 755, 444, 478, 479, 148, 136
680, 149, 14, 125, 474, 160, 444, 446, 723, 755, 478
681, 529, 127, 126, 151, 743, 138, 756, 540, 451, 450
682, 475, 135, 158, 159, 506, 466, 758, 741, 447, 170
683, 477, 153, 129, 152, 733, 457, 492, 757, 164, 453
684, 524, 152, 477, 128, 543, 757, 739, 765, 454, 493
685, 475, 158, 135, 134, 758, 466, 506, 507, 464, 146
686, 150, 126, 529, 472, 449, 756, 539, 769, 483, 737
687, 152, 151, 128, 524, 163, 452, 454, 543, 542, 765
688, 125, 126, 150, 472, 137, 449, 448, 484, 483, 769
689, 133, 132, 469, 522, 144, 503, 502, 768, 773, 774
690, 522, 156, 133, 132, 555, 462, 768, 773, 461, 144
691, 134, 475, 158, 522, 507, 758, 464, 775, 767, 558
692, 126, 150, 529, 151, 449, 539, 756, 450, 162, 540
693, 477, 129, 128, 152, 492, 140, 493, 757, 453, 454
694, 469, 521, 522, 520, 770, 564, 774, 771, 563, 565
695, 523, 473, 526, 520, 764, 744, 553, 569, 772, 568
696, 467, 469, 473, 520, 510, 504, 515, 434, 771, 772
697, 522, 132, 469, 473, 773, 503, 774, 776, 501, 504
698, 132, 156, 526, 522, 461, 554, 777, 773, 555, 557
699, 526, 473, 132, 522, 744, 501, 777, 557, 776, 773
700, 522, 158, 133, 157, 558, 463, 768, 556, 169, 465
701, 522, 133, 158, 134, 768, 463, 558, 775, 145, 464
702, 472, 125, 474, 709, 484, 478, 485, 778, 761, 725
703, 475, 134, 469, 522, 507, 505, 508, 767, 775, 774
704, 521, 522, 475, 469, 564, 767, 740, 770, 774, 508
705, 134, 133, 469, 522, 145, 502, 505, 775, 768, 774
706, 523, 526, 473, 711, 553, 744, 764, 713, 714, 730
707, 522, 473, 469, 520, 776, 504, 774, 565, 772, 771
708, 473, 522, 526, 520, 776, 557, 744, 772, 565, 568
709, 132, 155, 131, 473, 460, 459, 143, 501, 729, 498
710, 154, 131, 155, 711, 458, 459, 166, 712, 731, 715
711, 155, 156, 526, 132, 167, 554, 552, 460, 461, 777
712, 155, 132, 526, 473, 460, 777, 552, 729, 501, 744
713, 150, 149, 709, 525, 161, 724, 779, 537, 536, 766
714, 709, 149, 150, 125, 724, 161, 779, 761, 446, 448
715, 709, 472, 150, 525, 778, 769, 779, 766, 750, 537
716, 150, 472, 709, 125, 769, 778, 779, 448, 484, 761
717, 468, 709, 474, 527, 780, 725, 482, 759, 726, 722
718, 474, 709, 468, 472, 725, 780, 482, 485, 778, 513
719, 468, 521, 709, 527, 754, 781, 780, 759, 535, 726
720, 709, 521, 468, 472, 781, 754, 780, 778, 753, 513
721, 521, 525, 709, 527, 567, 766, 781, 535, 538, 726
722, 709, 525, 521, 472, 766, 567, 781, 778, 750, 753
723, 130, 711, 473, 131, 782, 730, 499, 142, 731, 498
724, 711, 130, 473, 523, 782, 499, 730, 713, 727, 764
725, 711, 130, 154, 131, 782, 456, 712, 731, 142, 458
726, 130, 711, 154, 523, 782, 712, 456, 727, 713, 549

** Define element set Eall
*ELSET, ELSET=Eall
Evolumes



***********************************************************
** Element sets for materials and FEM element type (solid, shell, beam, fluid)
*ELSET,ELSET=FEMPart002_MaterialSolid
Evolumes

** Physical constants for SI(mm) unit system with Kelvins
*PHYSICAL CONSTANTS, ABSOLUTE ZERO=0, STEFAN BOLTZMANN=5.670374419e-11

***********************************************************
** Materials
** see information about units at file end
** FreeCAD material name: CalculiX-Steel
** Material (FEMPart (LongPendulum001))
*MATERIAL, NAME=FEMPart002_Material
*ELASTIC
210000,0.3
*DENSITY
7.9E-09
*EXPANSION, ZERO=0
1.2E-05

***********************************************************
** Sections
*SOLID SECTION, ELSET=FEMPart002_MaterialSolid, MATERIAL=FEMPart002_Material

***********************************************************
** At least one step is needed to run an CalculiX analysis of FreeCAD
*STEP, INC=2000
*STATIC
1.0,1.0,1e-05,1.0

***********************************************************
** Automatic 3-2-1 constraints
** nodeXYZ 167: x=-19.7989898732, y=-5, z=28.2010101268
** nodeYZ 164: x=19.7989898732, y=-5, z=28.2010101268
** nodeZ 140: x=19.7989898732, y=5, z=28.2010101268
*BOUNDARY
167,1,1,0
167,2,2,0
167,3,3,0
164,2,2,0
164,3,3,0
140,3,3,0

***********************************************************
** MbDPart D'Alembert element loads
*DLOAD
15,GRAV,14767396.73594,0.01831623214267,3.77928022264E-17,-0.999832243749
16,GRAV,14444324.81267,-0.02431409431432,3.774844977272E-17,-0.9997043687099
17,GRAV,13866950.35724,-0.05243850839433,3.768206331086E-17,-0.9986241549439
18,GRAV,13168801.6954,-0.05745875111738,3.766790849442E-17,-0.9983478812118
19,GRAV,12532802.20118,-0.03445343648334,3.773040365486E-17,-0.9994063041198
20,GRAV,12150458.59049,0.01319990767021,3.779479046478E-17,-0.9999128774236
21,GRAV,12150458.59068,0.07087890852526,3.775709946993E-17,-0.997484927368
22,GRAV,12532802.20169,0.1183211034281,3.763057140552E-17,-0.9929753856383
23,GRAV,13168801.69607,0.1411560858278,3.753812138513E-17,-0.9899873531686
24,GRAV,13866950.35787,0.1361768204359,3.755881049322E-17,-0.9906845479647
25,GRAV,14444324.81311,0.1082426790157,3.766182905158E-17,-0.9941245004724
26,GRAV,14767396.7361,0.06577390690859,3.776179047266E-17,-0.9978345520025
27,GRAV,14857207.40413,0.04205693241766,3.778784543748E-17,-0.9991152157963
28,GRAV,14767396.73594,0.01831623214267,3.77928022264E-17,-0.999832243749
29,GRAV,14444324.81267,-0.02431409431432,3.774844977272E-17,-0.9997043687099
30,GRAV,13866950.35724,-0.05243850839433,3.768206331086E-17,-0.9986241549439
31,GRAV,13168801.6954,-0.05745875111738,3.766790849442E-17,-0.9983478812118
32,GRAV,12532802.20118,-0.03445343648334,3.773040365486E-17,-0.9994063041198
33,GRAV,12150458.59049,0.01319990767021,3.779479046478E-17,-0.9999128774236
34,GRAV,12150458.59068,0.07087890852526,3.775709946993E-17,-0.997484927368
35,GRAV,12532802.20169,0.1183211034281,3.763057140552E-17,-0.9929753856383
36,GRAV,13168801.69607,0.1411560858278,3.753812138513E-17,-0.9899873531686
37,GRAV,13866950.35787,0.1361768204359,3.755881049322E-17,-0.9906845479647
38,GRAV,14444324.81311,0.1082426790157,3.766182905158E-17,-0.9941245004724
39,GRAV,14767396.7361,0.06577390690859,3.776179047266E-17,-0.9978345520025
40,GRAV,13978584.63856,0.03202767169951,3.779357844248E-17,-0.9994869825293
41,GRAV,13842898.31185,0.01437762657211,3.779270420451E-17,-0.9998966365851
42,GRAV,13604681.21048,0.003575491045096,3.778657698177E-17,-0.9999936079115
43,GRAV,13324314.66124,0.002765105313763,3.778631119528E-17,-0.999996177089
44,GRAV,13076653.94358,0.01275471934986,3.779309981583E-17,-0.9999186552587
45,GRAV,12931507.39622,0.03121540692622,3.779527111361E-17,-0.999512680445
46,GRAV,12931507.39629,0.05289350801564,3.778110531351E-17,-0.998600158627
47,GRAV,13076653.94378,0.07132300748753,3.77548277062E-17,-0.9974532713882
48,GRAV,13324314.66151,0.08128379743515,3.773500226876E-17,-0.9966909973881
49,GRAV,13604681.21074,0.08047606257848,3.773632543445E-17,-0.9967565416649
50,GRAV,13842898.31204,0.06970399094985,3.775655056662E-17,-0.997567718827
51,GRAV,13978584.63862,0.05208195700969,3.778047374317E-17,-0.9986428139
52,GRAV,13978584.63856,0.03202767169951,3.779357844248E-17,-0.9994869825293
53,GRAV,13842898.31185,0.01437762657211,3.779270420451E-17,-0.9998966365851
54,GRAV,13604681.21048,0.003575491045096,3.778657698177E-17,-0.9999936079115
55,GRAV,13324314.66124,0.002765105313763,3.778631119528E-17,-0.999996177089
56,GRAV,13076653.94358,0.01275471934986,3.779309981583E-17,-0.9999186552587
57,GRAV,12931507.39622,0.03121540692622,3.779527111361E-17,-0.999512680445
58,GRAV,12931507.39629,0.05289350801564,3.778110531351E-17,-0.998600158627
59,GRAV,13076653.94378,0.07132300748753,3.77548277062E-17,-0.9974532713882
60,GRAV,13324314.66151,0.08128379743515,3.773500226876E-17,-0.9966909973881
61,GRAV,13604681.21074,0.08047606257848,3.773632543445E-17,-0.9967565416649
62,GRAV,13842898.31204,0.06970399094985,3.775655056662E-17,-0.997567718827
63,GRAV,13978584.63862,0.05208195700969,3.778047374317E-17,-0.9986428139
64,GRAV,14015471.0754,0.04205693243113,3.778888011076E-17,-0.9991152157957
65,GRAV,14015471.0754,0.04205693243113,3.778888011076E-17,-0.9991152157957
66,GRAV,14015471.0754,0.04205693243113,3.778888011076E-17,-0.9991152157957
67,GRAV,7990727.952009,0.08586887260486,3.773759459001E-17,-0.9963064471926
68,GRAV,12617452.61271,0.06981278154402,3.775816095863E-17,-0.997560111238
69,GRAV,7990727.952009,0.08586887260486,3.773759459001E-17,-0.9963064471926
70,GRAV,3371767.907486,0.1457544385181,3.757373007317E-17,-0.9893207991609
71,GRAV,7990727.951716,-0.001836066876685,3.779490637421E-17,-0.9999983144278
72,GRAV,12617452.61253,0.01426858154163,3.779445694372E-17,-0.9998981986086
73,GRAV,7990727.951716,-0.001836066876685,3.779490637421E-17,-0.9999983144278
74,GRAV,3371767.906792,-0.06209685217456,3.77095528533E-17,-0.9980701282726
75,GRAV,3353477.578125,0.04205693318689,3.784694416496E-17,-0.9991152157639
76,GRAV,12612577.19418,0.04205693245757,3.779091146345E-17,-0.9991152157946
77,GRAV,3353477.578125,0.04205693318689,3.784694416496E-17,-0.9991152157639
78,GRAV,12612577.19418,0.04205693245757,3.779091146345E-17,-0.9991152157946
79,GRAV,5209155.479493,-0.05230650956518,3.771312660365E-17,-0.9986310775542
80,GRAV,4882837.247057,-0.2340503937926,3.654902318039E-17,-0.9722244664508
81,GRAV,4258885.739353,-0.3919278906098,3.443650403933E-17,-0.919995939427
82,GRAV,3398779.971642,-0.5032620844627,3.223786747463E-17,-0.8641338289537
83,GRAV,2418204.594694,-0.5192556426229,3.189410635355E-17,-0.8546189663261
84,GRAV,1598284.156481,-0.266917574377,3.630478660189E-17,-0.9637193618937
85,GRAV,1598284.158529,0.346963775402,3.590363885735E-17,-0.9378785308124
86,GRAV,2418204.598393,0.589240441582,3.116974702505E-17,-0.8079577352834
87,GRAV,3398779.975238,0.5741030850137,3.153385100832E-17,-0.8187830285111
88,GRAV,4258885.742222,0.4678573642628,3.387466763524E-17,-0.8838039865858
89,GRAV,4882837.24889,0.3149276265669,3.619028728182E-17,-0.9491156884305
90,GRAV,5209155.480122,0.1360458711227,3.75900456096E-17,-0.9907025390855
91,GRAV,5317529.011834,0.04205693281995,3.781875257104E-17,-0.9991152157793
92,GRAV,5209155.479493,-0.05230650956518,3.771312660365E-17,-0.9986310775542
93,GRAV,4882837.247057,-0.2340503937926,3.654902318039E-17,-0.9722244664508
94,GRAV,4258885.739353,-0.3919278906098,3.443650403933E-17,-0.919995939427
95,GRAV,3398779.971642,-0.5032620844627,3.223786747463E-17,-0.8641338289537
96,GRAV,2418204.594694,-0.5192556426229,3.189410635355E-17,-0.8546189663261
97,GRAV,1598284.156481,-0.266917574377,3.630478660189E-17,-0.9637193618937
98,GRAV,1598284.158529,0.346963775402,3.590363885735E-17,-0.9378785308124
99,GRAV,2418204.598393,0.589240441582,3.116974702505E-17,-0.8079577352834
100,GRAV,3398779.975238,0.5741030850137,3.153385100832E-17,-0.8187830285111
101,GRAV,4258885.742222,0.4678573642628,3.387466763524E-17,-0.8838039865858
102,GRAV,4882837.24889,0.3149276265669,3.619028728182E-17,-0.9491156884305
103,GRAV,5209155.480122,0.1360458711227,3.75900456096E-17,-0.9907025390855
104,GRAV,14796404.20575,0.02626346881347,3.779351708637E-17,-0.9996550556096
105,GRAV,14796404.20585,0.05783989335958,3.777288311501E-17,-0.9983258720158
106,GRAV,14739326.06084,0.01033705560747,3.778968258213E-17,-0.9999465712134
107,GRAV,14739326.06105,0.07373446455634,3.7748254829E-17,-0.9972779094799
108,GRAV,14524326.99597,-0.01804521444186,3.775923642453E-17,-0.9998371718614
109,GRAV,13753586.14717,-0.05550382348605,3.767308881248E-17,-0.998458474639
110,GRAV,14364896.84391,-0.03065157801843,3.773603446832E-17,-0.9995301299936
111,GRAV,13980443.12413,-0.04942245116812,3.769054567794E-17,-0.9987779639742
112,GRAV,13049373.84669,-0.05596299496171,3.767269529927E-17,-0.9984328436079
113,GRAV,13288258.57023,-0.05892749236375,3.766312546294E-17,-0.9982622654612
114,GRAV,12624923.22371,-0.0406897930422,3.771556115555E-17,-0.9991718274362
115,GRAV,12185697.14957,0.003684483059413,3.778885492078E-17,-0.9999932122693
116,GRAV,12441176.5142,-0.02812360194771,3.774396316056E-17,-0.9996044532781
117,GRAV,12116326.60236,0.06132959548925,3.777211012107E-17,-0.9981175685845
118,GRAV,12116326.60223,0.02276860614874,3.779730823528E-17,-0.9997407616848
119,GRAV,12624923.22427,0.1245156931381,3.760760576393E-17,-0.992217638506
120,GRAV,12185697.14982,0.08036742293847,3.773874558724E-17,-0.9967653070459
121,GRAV,12441176.51466,0.1120303134813,3.765237800088E-17,-0.9937047895936
122,GRAV,13049373.84734,0.1396727612129,3.754485490395E-17,-0.9901977175166
123,GRAV,13980443.12474,0.1331843587481,3.757121919488E-17,-0.9910912806522
124,GRAV,13288258.57091,0.142612436193,3.75314269195E-17,-0.9897786080953
125,GRAV,13753586.14782,0.1392173680808,3.754584604983E-17,-0.9902618463945
126,GRAV,14364896.8444,0.1145431004982,3.764115536524E-17,-0.993418279542
127,GRAV,14524326.99637,0.1020071364521,3.768078685951E-17,-0.9947836669914
128,GRAV,14628394.11569,0.02062214371014,3.779343000856E-17,-0.9997873409825
129,GRAV,14623550.46996,0.06356859495076,3.776529363952E-17,-0.9979774715573
130,GRAV,14513281.85382,0.04214681657536,3.778819480574E-17,-0.9991114281463
131,GRAV,14102529.29251,0.02976873667418,3.779393979396E-17,-0.999556812951
132,GRAV,14097672.94821,0.05443548520774,3.7777782087E-17,-0.9985172897603
133,GRAV,14232703.07873,0.04214858852275,3.778854131706E-17,-0.9991113533964
134,GRAV,14332033.72652,-0.01767197490726,3.776007406335E-17,-0.9998438384582
135,GRAV,14380546.78764,0.005162837990661,3.778678609123E-17,-0.9999866724631
136,GRAV,13814439.35587,-0.04209372127247,3.771030461245E-17,-0.9991136665212
137,GRAV,14008519.61091,-0.02298893120557,3.775142564383E-17,-0.9997357195989
138,GRAV,13195905.35777,-0.04647750163407,3.769973016894E-17,-0.9989193370047
139,GRAV,13496387.61262,-0.03587619008019,3.772572295835E-17,-0.9993562422807
140,GRAV,12626408.42067,-0.02585553420244,3.774809730718E-17,-0.9996656897939
141,GRAV,12958499.27735,-0.02880796717875,3.774176512948E-17,-0.9995849643862
142,GRAV,12291077.03256,0.01683411160555,3.779589060048E-17,-0.9998582963033
143,GRAV,12547696.04371,-5.071447925681E-05,3.778500828686E-17,-0.999999998714
144,GRAV,12296787.68488,0.06732958991676,3.776281074142E-17,-0.9977307885004
145,GRAV,12403291.76043,0.04214457815348,3.779119647373E-17,-0.9991115225701
146,GRAV,12627381.30588,0.1093857536589,3.766072365978E-17,-0.9939993746962
147,GRAV,12554521.78163,0.08376647661929,3.773074061806E-17,-0.9964854125349
148,GRAV,13192668.25225,0.1305524493424,3.758307072136E-17,-0.9914414042044
149,GRAV,12956151.04681,0.1126230199863,3.764958488826E-17,-0.993637788819
150,GRAV,13813765.10938,0.1259593143407,3.760033059402E-17,-0.9920354082042
151,GRAV,13492431.28757,0.1200671906965,3.762283739572E-17,-0.9927657678014
152,GRAV,14331236.03228,0.1016542224036,3.768205815608E-17,-0.9948197922576
153,GRAV,14007036.04219,0.1069920500373,3.766632383216E-17,-0.9942598761032
154,GRAV,14374921.99762,0.07901386035804,3.773836595422E-17,-0.9968735174892
155,GRAV,13931200.22726,0.008150323736139,3.778940608833E-17,-0.9999667855599
156,GRAV,14133156.74172,0.01444761102044,3.779235188529E-17,-0.9998956278211
157,GRAV,13640161.81088,-0.004713831231519,3.777858931289E-17,-0.9999888898358
158,GRAV,13854694.60113,-0.006147207255186,3.777666283814E-17,-0.999981105743
159,GRAV,13300057.88429,-0.006338971751887,3.777720851797E-17,-0.9999799085167
160,GRAV,13477440.93718,-0.01512664338573,3.77651660459E-17,-0.9998855857846
161,GRAV,12989209.28251,0.005588913646274,3.778900502779E-17,-0.9999843819002
162,GRAV,13083660.60214,-0.0095259674363,3.777358837133E-17,-0.9999546269428
163,GRAV,12811856.76583,0.02880880254877,3.779593174624E-17,-0.9995849403106
164,GRAV,12785446.22783,0.01171239972582,3.779305139163E-17,-0.9999314074939
165,GRAV,12817555.70207,0.05537655176766,3.77785221654E-17,-0.9984655414757
166,GRAV,12683870.53562,0.04214263934847,3.779074124983E-17,-0.999111604351
167,GRAV,12990337.29297,0.07809162038937,3.774214473083E-17,-0.9969461865241
168,GRAV,12792319.39955,0.07205121359824,3.775396801382E-17,-0.9974009337368
169,GRAV,13296668.03957,0.09063409051595,3.771332993956E-17,-0.9958842611651
170,GRAV,13081334.8392,0.09343753209111,3.770648596065E-17,-0.9956251441164
171,GRAV,13639462.24242,0.08878417187692,3.771740681884E-17,-0.996050887668
172,GRAV,13473391.62778,0.09943062836707,3.768959944013E-17,-0.9950444965641
173,GRAV,13930395.93765,0.07593269824417,3.77450914382E-17,-0.9971129451258
174,GRAV,13853195.29342,0.09022958080079,3.771356503743E-17,-0.995920992222
175,GRAV,14127516.10768,0.06975277643303,3.775609494854E-17,-0.9975643087941
176,GRAV,14628394.11569,0.02062214371014,3.779343000856E-17,-0.9997873409825
177,GRAV,14623550.46996,0.06356859495076,3.776529363952E-17,-0.9979774715573
178,GRAV,14513281.85382,0.04214681657536,3.778819480574E-17,-0.9991114281463
179,GRAV,14102529.29251,0.02976873667418,3.779393979396E-17,-0.999556812951
180,GRAV,14097672.94821,0.05443548520774,3.7777782087E-17,-0.9985172897603
181,GRAV,14232703.07873,0.04214858852275,3.778854131706E-17,-0.9991113533964
182,GRAV,14332033.72652,-0.01767197490726,3.776007406335E-17,-0.9998438384582
183,GRAV,14380546.78764,0.005162837990661,3.778678609123E-17,-0.9999866724631
184,GRAV,13814439.35587,-0.04209372127247,3.771030461245E-17,-0.9991136665212
185,GRAV,14008519.61091,-0.02298893120557,3.775142564383E-17,-0.9997357195989
186,GRAV,13195905.35777,-0.04647750163407,3.769973016894E-17,-0.9989193370047
187,GRAV,13496387.61262,-0.03587619008019,3.772572295835E-17,-0.9993562422807
188,GRAV,12626408.42067,-0.02585553420244,3.774809730718E-17,-0.9996656897939
189,GRAV,12958499.27735,-0.02880796717875,3.774176512948E-17,-0.9995849643862
190,GRAV,12291077.03256,0.01683411160555,3.779589060048E-17,-0.9998582963033
191,GRAV,12547696.04371,-5.071447925682E-05,3.778500828686E-17,-0.999999998714
192,GRAV,12296787.68488,0.06732958991676,3.776281074142E-17,-0.9977307885004
193,GRAV,12403291.76043,0.04214457815348,3.779119647373E-17,-0.9991115225701
194,GRAV,12627381.30588,0.1093857536589,3.766072365978E-17,-0.9939993746962
195,GRAV,12554521.78163,0.08376647661929,3.773074061806E-17,-0.9964854125349
196,GRAV,13192668.25225,0.1305524493424,3.758307072136E-17,-0.9914414042044
197,GRAV,12956151.04681,0.1126230199863,3.764958488826E-17,-0.993637788819
198,GRAV,13813765.10938,0.1259593143407,3.760033059402E-17,-0.9920354082042
199,GRAV,13492431.28757,0.1200671906965,3.762283739572E-17,-0.9927657678014
200,GRAV,14331236.03228,0.1016542224036,3.768205815608E-17,-0.9948197922576
201,GRAV,14007036.04219,0.1069920500373,3.766632383216E-17,-0.9942598761032
202,GRAV,14374921.99762,0.07901386035804,3.773836595422E-17,-0.9968735174892
203,GRAV,13931200.22726,0.008150323736139,3.778940608833E-17,-0.9999667855599
204,GRAV,14133156.74172,0.01444761102044,3.779235188529E-17,-0.9998956278211
205,GRAV,13640161.81088,-0.004713831231519,3.777858931289E-17,-0.9999888898358
206,GRAV,13854694.60113,-0.006147207255186,3.777666283814E-17,-0.999981105743
207,GRAV,13300057.88429,-0.006338971751887,3.777720851797E-17,-0.9999799085167
208,GRAV,13477440.93718,-0.01512664338573,3.77651660459E-17,-0.9998855857846
209,GRAV,12989209.28251,0.005588913646274,3.778900502779E-17,-0.9999843819002
210,GRAV,13083660.60214,-0.0095259674363,3.777358837133E-17,-0.9999546269428
211,GRAV,12811856.76583,0.02880880254877,3.779593174624E-17,-0.9995849403106
212,GRAV,12785446.22783,0.01171239972582,3.779305139163E-17,-0.9999314074939
213,GRAV,12817555.70207,0.05537655176766,3.77785221654E-17,-0.9984655414757
214,GRAV,12683870.53562,0.04214263934847,3.779074124983E-17,-0.999111604351
215,GRAV,12990337.29297,0.07809162038937,3.774214473083E-17,-0.9969461865241
216,GRAV,12792319.39955,0.07205121359824,3.775396801382E-17,-0.9974009337368
217,GRAV,13296668.03957,0.09063409051595,3.771332993956E-17,-0.9958842611651
218,GRAV,13081334.8392,0.09343753209111,3.770648596065E-17,-0.9956251441164
219,GRAV,13639462.24242,0.08878417187692,3.771740681884E-17,-0.996050887668
220,GRAV,13473391.62778,0.09943062836707,3.768959944013E-17,-0.9950444965641
221,GRAV,13930395.93765,0.07593269824417,3.77450914382E-17,-0.9971129451258
222,GRAV,13853195.29342,0.09022958080079,3.771356503743E-17,-0.995920992222
223,GRAV,14127516.10768,0.06975277643303,3.775609494854E-17,-0.9975643087941
224,GRAV,13984757.45708,0.03191419506197,3.779360120059E-17,-0.9994906123389
225,GRAV,13984757.45715,0.05219533726251,3.778034825908E-17,-0.9986368943555
226,GRAV,14009181.06778,0.04550941125404,3.778640654729E-17,-0.9989639100024
227,GRAV,14009181.06776,0.03860395134337,3.779091899809E-17,-0.999254589652
228,GRAV,13986185.60461,0.0323395437798,3.779348122254E-17,-0.9994769401583
229,GRAV,13986185.60468,0.05177034424355,3.778078394645E-17,-0.9986590166102
230,GRAV,14010649.0195,0.03902776579673,3.779069213904E-17,-0.9992381265229
231,GRAV,14010649.01952,0.04508571252221,3.77867335053E-17,-0.998983122243
232,GRAV,13841735.33092,0.01363769614628,3.779240448476E-17,-0.9999070022976
233,GRAV,13916127.5154,0.01983575109396,3.779419022855E-17,-0.9998032521344
234,GRAV,13968787.53023,0.0263299449749,3.779453819423E-17,-0.9996533069008
235,GRAV,13604467.48416,0.003081137285989,3.778617659497E-17,-0.9999952532852
236,GRAV,13728873.59499,0.007012415230371,3.778893733826E-17,-0.9999754127141
237,GRAV,13322909.67455,0.002298500871972,3.778592099441E-17,-0.9999973584434
238,GRAV,13463386.46869,0.001283304221489,3.77848387591E-17,-0.9999991765648
239,GRAV,13072281.94047,0.01240002599413,3.779294278014E-17,-0.9999231167222
240,GRAV,13188662.66704,0.00605049615365,3.778903770898E-17,-0.9999816955806
241,GRAV,12925369.28589,0.03108268466849,3.779531245868E-17,-0.9995168166238
242,GRAV,12982272.465,0.02094473447269,3.779569741078E-17,-0.9997806349884
243,GRAV,12925369.28596,0.05302610836134,3.778097328053E-17,-0.9985931262692
244,GRAV,12905903.29037,0.04205693245157,3.779045021969E-17,-0.9991152157948
245,GRAV,13072281.94067,0.07167682102935,3.775420768866E-17,-0.9974279088371
246,GRAV,12982272.46514,0.06315036598306,3.7768117664E-17,-0.9980040236774
247,GRAV,13322909.67481,0.08174885051094,3.773400326576E-17,-0.9966529613863
248,GRAV,13188662.66728,0.07800881188636,3.774201573453E-17,-0.9969526695225
249,GRAV,13604467.48442,0.08096880580229,3.773528001797E-17,-0.9967166360039
250,GRAV,13463386.46896,0.08276060861975,3.773159649397E-17,-0.9965694565161
251,GRAV,13841735.33111,0.07044217494789,3.77552849563E-17,-0.9975158645298
252,GRAV,13728873.59522,0.07704976763838,3.774317063902E-17,-0.9970272480263
253,GRAV,13916127.51555,0.06425732695213,3.776516244792E-17,-0.9979333624711
254,GRAV,13968787.53034,0.05777350542843,3.777399104439E-17,-0.9983297161111
255,GRAV,13841735.33092,0.01363769614628,3.779240448476E-17,-0.9999070022976
256,GRAV,13916127.5154,0.01983575109396,3.779419022855E-17,-0.9998032521344
257,GRAV,13970182.40843,0.02675641451213,3.779450798885E-17,-0.9996419830532
258,GRAV,13604467.48416,0.003081137285989,3.778617659497E-17,-0.9999952532852
259,GRAV,13728873.59499,0.007012415230371,3.778893733826E-17,-0.9999754127141
260,GRAV,13322909.67455,0.002298500871972,3.778592099441E-17,-0.9999973584434
261,GRAV,13463386.46869,0.001283304221489,3.77848387591E-17,-0.9999991765648
262,GRAV,13072281.94047,0.01240002599413,3.779294278014E-17,-0.9999231167222
263,GRAV,13188662.66704,0.00605049615365,3.778903770898E-17,-0.9999816955806
264,GRAV,12925369.28589,0.03108268466849,3.779531245868E-17,-0.9995168166238
265,GRAV,12982272.465,0.02094473447269,3.779569741078E-17,-0.9997806349884
266,GRAV,12925369.28596,0.05302610836134,3.778097328053E-17,-0.9985931262692
267,GRAV,12905903.29037,0.04205693245157,3.779045021969E-17,-0.9991152157948
268,GRAV,13072281.94067,0.07167682102935,3.775420768866E-17,-0.9974279088371
269,GRAV,12982272.46514,0.06315036598306,3.7768117664E-17,-0.9980040236774
270,GRAV,13322909.67481,0.08174885051094,3.773400326576E-17,-0.9966529613863
271,GRAV,13188662.66728,0.07800881188636,3.774201573453E-17,-0.9969526695225
272,GRAV,13604467.48442,0.08096880580229,3.773528001797E-17,-0.9967166360039
273,GRAV,13463386.46896,0.08276060861975,3.773159649397E-17,-0.9965694565161
274,GRAV,13841735.33111,0.07044217494789,3.77552849563E-17,-0.9975158645298
275,GRAV,13728873.59522,0.07704976763838,3.774317063902E-17,-0.9970272480263
276,GRAV,13916127.51555,0.06425732695213,3.776516244792E-17,-0.9979333624711
277,GRAV,13970182.40854,0.05734759290764,3.77745178377E-17,-0.9983542725845
278,GRAV,14010649.0195,0.03902776579673,3.779069213904E-17,-0.9992381265229
279,GRAV,14010649.01952,0.04508571252221,3.77867335053E-17,-0.998983122243
280,GRAV,13992688.14057,0.05107212178022,3.778147943646E-17,-0.9986949676337
281,GRAV,13994122.98019,0.05064746001941,3.778189669389E-17,-0.9987165938311
282,GRAV,13992688.14051,0.03303831753524,3.77932638296E-17,-0.9994540857761
283,GRAV,13994122.98013,0.03346329447838,3.779312588102E-17,-0.9994399471317
284,GRAV,6449387.506095,0.09632748006277,3.77189100205E-17,-0.995349695627
285,GRAV,9532664.706566,0.07878766092912,3.774787511265E-17,-0.9968914206097
286,GRAV,6449387.505732,-0.01233808093602,3.77899187602E-17,-0.9999238829825
287,GRAV,9532664.706321,0.005269255214096,3.77959165458E-17,-0.9999861173784
288,GRAV,6440905.191724,0.06018478216808,3.779228448058E-17,-0.9981872529718
289,GRAV,9526927.988143,0.02979331994979,3.780265221476E-17,-0.9995560805109
290,GRAV,6440905.191724,0.06018478216808,3.779228448058E-17,-0.9981872529718
291,GRAV,9526927.988143,0.02979331994979,3.780265221476E-17,-0.9995560805109
292,GRAV,3361618.89947,0.1114480148203,3.770987377226E-17,-0.9937702651985
293,GRAV,3353477.578125,0.04205693318689,3.784694416496E-17,-0.9991152157639
294,GRAV,3353477.578125,0.04205693318689,3.784694416496E-17,-0.9991152157639
295,GRAV,3361618.899006,-0.02753785923257,3.78006956659E-17,-0.9996207612434
296,GRAV,12614744.27951,0.060568415873,3.777231810849E-17,-0.9981640481397
297,GRAV,12612577.19418,0.04205693245757,3.779091146345E-17,-0.9991152157946
298,GRAV,12612577.19418,0.04205693245757,3.779091146345E-17,-0.9991152157946
299,GRAV,12614744.27939,0.02353099913212,3.779652062695E-17,-0.9997231077053
300,GRAV,5240052.40104,-0.02043914175023,3.778647926386E-17,-0.9997910989224
301,GRAV,5240052.401456,0.1043887239357,3.770490908282E-17,-0.9945365726383
302,GRAV,5183616.056839,-0.08446677053717,3.75999971182E-17,-0.9964262966597
303,GRAV,5183616.057681,0.167907074325,3.743508057409E-17,-0.98580282734
304,GRAV,4802833.975331,-0.2639230295613,3.623186944707E-17,-0.9645437441958
305,GRAV,4967334.087737,-0.204955303945,3.682261081229E-17,-0.9787713335528
306,GRAV,4131474.976971,-0.4162862679553,3.400911691843E-17,-0.9092336020583
307,GRAV,4389140.34495,-0.3687455359895,3.481648896714E-17,-0.9295303812613
308,GRAV,3560639.060879,-0.4907574910274,3.251663585697E-17,-0.8712962096787
309,GRAV,2584573.817507,-0.5301983419856,3.162231355355E-17,-0.8478736451593
310,GRAV,3237697.181748,-0.5168932733366,3.192356389116E-17,-0.8560498490038
311,GRAV,1512972.855744,-0.175104541793,3.718642916543E-17,-0.9845498460939
312,GRAV,2252293.958776,-0.5065928469929,3.219950269527E-17,-0.8621854135716
313,GRAV,1696278.455554,-0.346813248644,3.524696805251E-17,-0.9379342037504
314,GRAV,1512972.857187,0.2572261206463,3.690391777805E-17,-0.9663512419702
315,GRAV,2252293.962393,0.5772583216718,3.149124786214E-17,-0.8165615898759
316,GRAV,1696278.458128,0.4244098423051,3.474300356412E-17,-0.9054702014725
317,GRAV,3237697.185432,0.5870066794625,3.120220796894E-17,-0.8095820886522
318,GRAV,2584573.821277,0.5995775571918,3.088404869237E-17,-0.8003166578998
319,GRAV,4389140.347668,0.4455582880323,3.428437291911E-17,-0.8952529318387
320,GRAV,3560639.064393,0.5622446499078,3.182853968867E-17,-0.8269709509106
321,GRAV,4131474.98,0.4912251112955,3.341609333788E-17,-0.8710326572711
322,GRAV,4802833.97736,0.3440491021477,3.583458317887E-17,-0.9389516576008
323,GRAV,4967334.089377,0.286485657725,3.650147315581E-17,-0.9580845306745
324,GRAV,5042158.487747,-0.04671402984945,3.773045910775E-17,-0.9989083038073
325,GRAV,4920014.318668,0.1261924744433,3.763292471826E-17,-0.9920057758874
326,GRAV,4782768.405948,0.03534939921711,3.782766610385E-17,-0.9993750146842
327,GRAV,4628477.035168,-0.2040012433787,3.683480282456E-17,-0.9789706291304
328,GRAV,4658146.21315,-0.1057103526097,3.750904182229E-17,-0.9943969636675
329,GRAV,4150875.331684,-0.363175058789,3.490777657411E-17,-0.9317209220972
330,GRAV,4230326.809428,-0.2559449016539,3.632765548491E-17,-0.9666913712853
331,GRAV,3321706.789038,-0.4287093832439,3.379388859047E-17,-0.9034424523558
332,GRAV,3674878.22246,-0.3498160434025,3.512077554492E-17,-0.9368184113147
333,GRAV,2457052.19332,-0.4602742551159,3.319984528949E-17,-0.8877767794201
334,GRAV,2882741.423768,-0.385314332164,3.457672840344E-17,-0.9227853842736
335,GRAV,1851597.567081,-0.1829743256841,3.709403710038E-17,-0.9831176919069
336,GRAV,2257390.226235,-0.2888645884268,3.599769760491E-17,-0.9573699648271
337,GRAV,1975307.913503,0.3270633762354,3.612347166113E-17,-0.9450024063067
338,GRAV,2137227.232418,0.1129703663633,3.77484277461E-17,-0.9935983576495
339,GRAV,2492419.46334,0.492007486322,3.344088728764E-17,-0.8705909679081
340,GRAV,3477849.557977,0.4826507912719,3.360023325672E-17,-0.8758128873707
341,GRAV,3089813.740627,0.4057924305239,3.497833176891E-17,-0.9139652637434
342,GRAV,4074459.283632,0.4187355216909,3.474924113865E-17,-0.9081082330176
343,GRAV,4735430.062143,0.2983872244785,3.63776895379E-17,-0.9544448984975
344,GRAV,4274180.101148,0.3258719844352,3.606820171361E-17,-0.9454139039385
345,GRAV,4634976.05386,0.2015445285281,3.723361341456E-17,-0.9794793530343
346,GRAV,3791317.833938,0.1511818665849,3.753963881264E-17,-0.9885059651898
347,GRAV,3923392.781562,0.00333808759865,3.783281104976E-17,-0.9999944285701
348,GRAV,3251373.508874,0.215637747769,3.715679009474E-17,-0.9764734311476
349,GRAV,2967593.043433,-0.09809449536943,3.757693645101E-17,-0.9951771048302
350,GRAV,2790643.021054,0.0963854330618,3.777078570832E-17,-0.9953440853763
351,GRAV,3550953.350181,-0.1180091244213,3.746237734153E-17,-0.9930125107738
352,GRAV,4162609.840409,0.2195732525977,3.711010589921E-17,-0.9755960161582
353,GRAV,4376052.736481,-0.02006528534739,3.779675949058E-17,-0.9997986718955
354,GRAV,2714572.391577,-0.2327894511197,3.66035054468E-17,-0.9725271571773
355,GRAV,3764389.571403,-0.2286605915866,3.661804838403E-17,-0.9735062063774
356,GRAV,5042158.487747,-0.04671402984945,3.773045910775E-17,-0.9989083038073
357,GRAV,4920014.318668,0.1261924744433,3.763292471826E-17,-0.9920057758874
358,GRAV,4782768.405948,0.03534939921711,3.782766610385E-17,-0.9993750146842
359,GRAV,4628477.035168,-0.2040012433787,3.683480282456E-17,-0.9789706291304
360,GRAV,4658146.21315,-0.1057103526097,3.750904182229E-17,-0.9943969636675
361,GRAV,4150875.331684,-0.363175058789,3.490777657411E-17,-0.9317209220972
362,GRAV,4230326.809428,-0.2559449016539,3.632765548491E-17,-0.9666913712853
363,GRAV,3321706.789038,-0.4287093832439,3.379388859047E-17,-0.9034424523558
364,GRAV,3674878.22246,-0.3498160434025,3.512077554492E-17,-0.9368184113147
365,GRAV,2457052.19332,-0.4602742551159,3.319984528949E-17,-0.8877767794201
366,GRAV,2882741.423768,-0.385314332164,3.457672840344E-17,-0.9227853842736
367,GRAV,1851597.567081,-0.1829743256841,3.709403710038E-17,-0.9831176919069
368,GRAV,2257390.226235,-0.2888645884268,3.599769760491E-17,-0.9573699648271
369,GRAV,1975307.913503,0.3270633762354,3.612347166113E-17,-0.9450024063067
370,GRAV,2137227.232418,0.1129703663633,3.77484277461E-17,-0.9935983576495
371,GRAV,2492419.46334,0.492007486322,3.344088728764E-17,-0.8705909679081
372,GRAV,3477849.557977,0.4826507912719,3.360023325672E-17,-0.8758128873707
373,GRAV,3089813.740627,0.4057924305239,3.497833176891E-17,-0.9139652637434
374,GRAV,4074459.283632,0.4187355216909,3.474924113865E-17,-0.9081082330176
375,GRAV,4735430.062143,0.2983872244785,3.63776895379E-17,-0.9544448984975
376,GRAV,4274180.101148,0.3258719844352,3.606820171361E-17,-0.9454139039385
377,GRAV,4634976.05386,0.2015445285281,3.723361341456E-17,-0.9794793530343
378,GRAV,3791317.833938,0.1511818665849,3.753963881264E-17,-0.9885059651898
379,GRAV,3923392.781562,0.00333808759865,3.783281104976E-17,-0.9999944285701
380,GRAV,3251373.508874,0.215637747769,3.715679009474E-17,-0.9764734311476
381,GRAV,2967593.043433,-0.09809449536943,3.757693645101E-17,-0.9951771048302
382,GRAV,2790643.021054,0.0963854330618,3.777078570832E-17,-0.9953440853763
383,GRAV,3550953.350181,-0.1180091244213,3.746237734153E-17,-0.9930125107738
384,GRAV,4162609.840409,0.2195732525977,3.711010589921E-17,-0.9755960161582
385,GRAV,4376052.736481,-0.02006528534739,3.779675949058E-17,-0.9997986718955
386,GRAV,2714572.391577,-0.2327894511197,3.66035054468E-17,-0.9725271571773
387,GRAV,3764389.571403,-0.2286605915866,3.661804838403E-17,-0.9735062063774
388,GRAV,13926383.5307,-0.04608300737571,3.769977229533E-17,-0.9989376138835
389,GRAV,13755981.30427,-0.05060280740547,3.768750721748E-17,-0.998718857278
390,GRAV,12900568.73484,0.006183254859622,3.778956473868E-17,-0.999980883497
391,GRAV,12742002.76357,0.03307992470268,3.779504629203E-17,-0.9994527095274
392,GRAV,12902265.84564,0.07730658732209,3.774385476585E-17,-0.9970073678547
393,GRAV,13357312.16337,-0.01135291884844,3.777075686472E-17,-0.9999355535401
394,GRAV,13715316.79589,0.091077569354,3.771162958366E-17,-0.995843801186
395,GRAV,14185272.1277,0.06620544039499,3.776182800443E-17,-0.9978060130417
396,GRAV,12777492.89191,0.009123785868523,3.77916588737E-17,-0.9999583773995
397,GRAV,14127617.21167,0.0735067158523,3.774942844859E-17,-0.997294722098
398,GRAV,12717214.88338,0.01734000062149,3.779533991321E-17,-0.9998496508868
399,GRAV,13456082.13541,-0.01699861261209,3.776230795068E-17,-0.9998555131464
400,GRAV,12783499.62261,0.07442220328312,3.774962631651E-17,-0.9972268225727
401,GRAV,12660374.15059,0.04047012102069,3.779182409847E-17,-0.9991807490662
402,GRAV,13940350.68632,0.0883322883744,3.771809593988E-17,-0.9960910635231
403,GRAV,13570914.6369,-0.01618361192272,3.77634207217E-17,-0.9998690367769
404,GRAV,12726668.88012,0.06657119983788,3.776331942749E-17,-0.997781677198
405,GRAV,12664979.52229,0.04956383462075,3.778485475639E-17,-0.9987709578766
406,GRAV,13841194.92914,0.09257199115978,3.770765471194E-17,-0.9957059939825
407,GRAV,14003905.94359,0.076818520994,3.774326184195E-17,-0.9970450916745
408,GRAV,14092318.72983,0.04197929794958,3.778883113852E-17,-0.9991184807337
409,GRAV,14078451.03619,0.05309685212982,3.777927561357E-17,-0.9985893672045
410,GRAV,14079700.9672,0.04612318584918,3.778582656601E-17,-0.9989357595597
411,GRAV,13430407.68467,0.1174440784931,3.763231711461E-17,-0.9930794975363
412,GRAV,14465959.62457,0.04819080053935,3.77835906272E-17,-0.9988381484221
413,GRAV,13204045.08383,-0.001651359137582,3.77824443074E-17,-0.9999986365056
414,GRAV,13204045.08383,-0.001651359137582,3.77824443074E-17,-0.9999986365056
415,GRAV,13096146.0147,0.08140701474112,3.773507253388E-17,-0.9966809408988
416,GRAV,13096146.0147,0.08140701474112,3.773507253388E-17,-0.9966809408988
417,GRAV,14307827.54517,0.08126603007324,3.773371986431E-17,-0.9966924462221
418,GRAV,13933234.85461,0.1065640408068,3.766775576077E-17,-0.9943058408794
419,GRAV,14159712.31212,0.05039530090753,3.778192843823E-17,-0.9987293495469
420,GRAV,14061652.70034,0.05777496399921,3.777386820987E-17,-0.9983296317023
421,GRAV,13410418.62075,-0.005122500011436,3.777845228779E-17,-0.9999868799107
422,GRAV,13410418.62075,-0.005122500011436,3.777845228779E-17,-0.9999868799107
423,GRAV,13524848.53589,0.08846525876479,3.771833886003E-17,-0.9960792629062
424,GRAV,13524848.53589,0.08846525876479,3.771833886003E-17,-0.9960792629062
425,GRAV,14064246.68239,0.0260844511946,3.779442704074E-17,-0.9996597428155
426,GRAV,13844762.4597,-0.002632990580879,3.778054876997E-17,-0.9999965336743
427,GRAV,13844762.4597,-0.002632990580879,3.778054876997E-17,-0.9999965336743
428,GRAV,14060608.21223,0.05809233730536,3.777347115876E-17,-0.9983112141744
429,GRAV,13813648.71307,-0.01093562822555,3.777069013036E-17,-0.9999402042299
430,GRAV,13723585.59972,0.08410014742442,3.772825484766E-17,-0.9964573072657
431,GRAV,13205166.69613,0.1252596439994,3.760387498594E-17,-0.9921239950657
432,GRAV,13723585.59972,0.08410014742442,3.772825484766E-17,-0.9964573072657
433,GRAV,13724112.60941,-2.479954586101E-05,3.778328400801E-17,-0.9999999996925
434,GRAV,13724112.60941,-2.479954586101E-05,3.778328400801E-17,-0.9999999996925
435,GRAV,14551654.51608,0.06244947230884,3.776700065488E-17,-0.9980481267997
436,GRAV,14274930.32358,0.0983192032065,3.769166267648E-17,-0.9951549297877
437,GRAV,13787725.90645,0.1208161504896,3.761970070376E-17,-0.992674900348
438,GRAV,14032827.33323,0.01904508558757,3.779387762399E-17,-0.9998186259092
439,GRAV,12922493.6766,-0.02390628874852,3.775128985283E-17,-0.9997142038394
440,GRAV,12614766.03766,-0.002332592701126,3.778266082073E-17,-0.9999972795019
441,GRAV,13028327.928,0.1118097246099,3.765218252651E-17,-0.9937296339964
442,GRAV,14163146.99484,0.04814669243567,3.77840079643E-17,-0.9988402755233
443,GRAV,13078079.68796,-0.004228292195529,3.777993237031E-17,-0.9999910607326
444,GRAV,13078079.68796,-0.004228292195529,3.777993237031E-17,-0.9999910607326
445,GRAV,13140883.22857,0.09071229678546,3.771336245965E-17,-0.9958771406212
446,GRAV,13140883.22857,0.09071229678546,3.771336245965E-17,-0.9958771406212
447,GRAV,12553294.66357,0.005935676307314,3.778993848884E-17,-0.9999823837182
448,GRAV,12921473.67181,0.1074850208173,3.766631254357E-17,-0.9942067040107
449,GRAV,13032570.2827,-0.02774848656962,3.774377665474E-17,-0.9996149366096
450,GRAV,14364671.17086,0.07402938606868,3.774815874361E-17,-0.9972560603969
451,GRAV,13547000.63007,0.1163209085978,3.763609348424E-17,-0.9932116824841
452,GRAV,12445271.72952,0.03752735902318,3.779375581555E-17,-0.9992956005731
453,GRAV,12620695.73792,0.08582967903254,3.772593428538E-17,-0.9963098244006
454,GRAV,14031551.43329,0.1022593913925,3.768066385304E-17,-0.9947577679375
455,GRAV,12562722.3273,0.07793562959928,3.774313035731E-17,-0.9969583931333
456,GRAV,12449546.74956,0.04678051888373,3.77876680244E-17,-0.9989051922245
457,GRAV,13434716.46493,0.09528111864215,3.770109829849E-17,-0.9954504048069
458,GRAV,13434716.46493,0.09528111864215,3.770109829849E-17,-0.9954504048069
459,GRAV,13963086.62253,0.07029510575458,3.775537835786E-17,-0.9975262393075
460,GRAV,14243279.41289,0.05238196618743,3.777982174527E-17,-0.9986271224127
461,GRAV,13853752.15252,-0.02033643658504,3.775628353528E-17,-0.999793193289
462,GRAV,13508715.9257,-0.01079192995191,3.777130188746E-17,-0.9999417654283
463,GRAV,13508715.9257,-0.01079192995191,3.777130188746E-17,-0.9999417654283
464,GRAV,12920827.03579,-0.03477804460331,3.772906182587E-17,-0.9993950608311
465,GRAV,12919060.76744,0.1185785854005,3.762904190404E-17,-0.9929446707065
466,GRAV,14090660.72875,0.04894776962632,3.778338050573E-17,-0.9988013395308
467,GRAV,13500306.51581,0.1264322171289,3.759893166194E-17,-0.991975248921
468,GRAV,13849316.49024,0.08565800564206,3.772453231592E-17,-0.9963245987475
469,GRAV,13849316.49024,0.08565800564206,3.772453231592E-17,-0.9963245987475
470,GRAV,14452537.22622,0.08173693575157,3.773252738111E-17,-0.9966539386035
471,GRAV,13850444.12611,-0.001574876231092,3.778161587605E-17,-0.9999987598817
472,GRAV,14596513.08102,0.04396900033037,3.778683444482E-17,-0.9990328958598
473,GRAV,13850444.12611,-0.001574876231092,3.778161587605E-17,-0.9999987598817
474,GRAV,14087099.70833,0.06702955694672,3.776064738184E-17,-0.9977509902253
475,GRAV,12480479.15346,0.08754713773536,3.772212625049E-17,-0.9961603779886
476,GRAV,14056670.37487,0.1121378494187,3.76496561428E-17,-0.9936926600955
477,GRAV,12673557.98537,-0.02160362150708,3.775581396477E-17,-0.9997666145345
478,GRAV,12361446.10332,0.0186201174265,3.779624828539E-17,-0.999826630585
479,GRAV,13210053.67456,-0.04100192421783,3.771388902996E-17,-0.9991590675215
480,GRAV,12675049.59625,0.104964949324,3.767450526754E-17,-0.9944759219878
481,GRAV,12370009.56641,0.0655861163506,3.77654406646E-17,-0.9978469127787
482,GRAV,14128860.19805,0.01909500960924,3.779376442631E-17,-0.9998176736826
483,GRAV,13971148.89642,-0.004146080831617,3.777877126904E-17,-0.9999914049699
484,GRAV,13971148.89642,-0.004146080831617,3.777877126904E-17,-0.9999914049699
485,GRAV,13992782.73686,0.01386000475651,3.779229756051E-17,-0.9999039455208
486,GRAV,14091333.58856,0.0171466056813,3.779332211764E-17,-0.9998529861503
487,GRAV,13963086.62253,0.07029510575458,3.775537835786E-17,-0.9975262393075
488,GRAV,14329120.35391,-0.02395943747241,3.774924764652E-17,-0.9997129314738
489,GRAV,13963690.8685,0.01379803274199,3.779231001953E-17,-0.999904802615
490,GRAV,14087099.70833,0.06702955694672,3.776064738184E-17,-0.9977509902253
491,GRAV,12286281.52771,0.07527480450345,3.774881807046E-17,-0.9971628271285
492,GRAV,13097107.92885,0.1320371399132,3.757717643484E-17,-0.991244769814
493,GRAV,13276030.26622,0.1343493705531,3.75673427029E-17,-0.9909340273863
494,GRAV,12671582.6395,-0.03268944341266,3.773406912449E-17,-0.9994655573302
495,GRAV,13912271.77217,0.1263117178134,3.759883714304E-17,-0.9919905997251
496,GRAV,13741644.68992,0.1307597650222,3.758145794032E-17,-0.9914140829398
497,GRAV,14163000.34487,0.02882121674266,3.779402392715E-17,-0.9995845824469
498,GRAV,12535277.32564,0.1068852221487,3.766880323127E-17,-0.9942713660195
499,GRAV,14638220.07587,0.07013430999653,3.775480978773E-17,-0.997537557469
500,GRAV,12672286.72136,0.1162769636491,3.763755085412E-17,-0.9932168281521
501,GRAV,13099531.30534,-0.04804481950638,3.769560505179E-17,-0.9988451808557
502,GRAV,14681320.90828,0.05812903789002,3.777265519107E-17,-0.9983090778682
503,GRAV,14419734.75081,0.09861939646991,3.769064189026E-17,-0.9951252256073
504,GRAV,14299485.14657,0.1080407186252,3.766264912324E-17,-0.9941464696507
505,GRAV,14681775.63791,0.02787668615177,3.779351267438E-17,-0.9996113696678
506,GRAV,14062314.88482,-0.01810642616146,3.775971631787E-17,-0.9998360652285
507,GRAV,14555624.44566,0.02363878044967,3.779381992126E-17,-0.9997205649875
508,GRAV,14175645.71031,0.04402576626027,3.778731380445E-17,-0.9990303958865
509,GRAV,13976495.72318,-0.02603091040794,3.774580304341E-17,-0.9996611384381
510,GRAV,12475371.36287,-0.003767120895453,3.778137929248E-17,-0.9999929043749
511,GRAV,12315323.72199,0.04212313630062,3.779135795326E-17,-0.999112426801
512,GRAV,13007747.15554,0.007120727902227,3.779004342167E-17,-0.9999746472957
513,GRAV,13302448.54621,0.08864326920546,3.771822426565E-17,-0.9960634371487
514,GRAV,13302448.54621,0.08864326920546,3.771822426565E-17,-0.9960634371487
515,GRAV,13007747.15554,0.007120727902227,3.779004342167E-17,-0.9999746472957
516,GRAV,14092467.70754,0.03746177275003,3.779138339391E-17,-0.9992980614323
517,GRAV,13907633.92888,0.07493425881762,3.774703916175E-17,-0.9971884760944
518,GRAV,12837161.13564,0.02931379729857,3.779581068592E-17,-0.999570258305
519,GRAV,12837161.13564,0.02931379729857,3.779581068592E-17,-0.999570258305
520,GRAV,13304996.42665,-0.004410827597863,3.7779397907E-17,-0.9999902722526
521,GRAV,13008598.63615,0.076659212926,3.774497419729E-17,-0.997057352951
522,GRAV,13008598.63615,0.076659212926,3.774497419729E-17,-0.997057352951
523,GRAV,13304996.42665,-0.004410827597863,3.7779397907E-17,-0.9999902722526
524,GRAV,14079047.74039,0.03299560739733,3.779316492315E-17,-0.9994554967043
525,GRAV,14449389.16487,-0.01450985505048,3.776481119405E-17,-0.999894726512
526,GRAV,13907633.92888,0.07493425881762,3.774703916175E-17,-0.9971884760944
527,GRAV,13908237.32935,0.009147159703618,3.7790044076E-17,-0.9999581638595
528,GRAV,13908237.32935,0.009147159703618,3.7790044076E-17,-0.9999581638595
529,GRAV,14028553.17918,0.006494475195904,3.778818626292E-17,-0.9999789106736
530,GRAV,12841434.94619,0.0548524491087,3.777908687814E-17,-0.9984944711048
531,GRAV,12841434.94619,0.0548524491087,3.777908687814E-17,-0.9984944711048
532,GRAV,12234718.23374,0.06111008650242,3.777220863883E-17,-0.9981310321434
533,GRAV,12534538.14782,-0.02324504240855,3.77531108628E-17,-0.999729797497
534,GRAV,13631074.73901,-0.003015671929838,3.778043950774E-17,-0.9999954528511
535,GRAV,13631074.73901,-0.003015671929838,3.778043950774E-17,-0.9999954528511
536,GRAV,13278446.85357,-0.05037757118748,3.768881727471E-17,-0.9987302440205
537,GRAV,12281993.02703,0.0088473468364,3.779230204519E-17,-0.9999608614611
538,GRAV,12230439.73428,0.02304851366939,3.779713096304E-17,-0.9997343477232
539,GRAV,14638338.67552,0.01585538538747,3.779223923745E-17,-0.9998742954763
540,GRAV,14076168.03294,0.03024575352725,3.779387956735E-17,-0.9995424925402
541,GRAV,13630549.21443,0.08708040868063,3.772150375358E-17,-0.9962012860984
542,GRAV,13630549.21443,0.08708040868063,3.772150375358E-17,-0.9962012860984
543,GRAV,14161535.59264,0.01073627318589,3.779060599487E-17,-0.9999423645581
544,GRAV,14469376.88221,0.03984912772302,3.778965764747E-17,-0.99920570806
545,GRAV,14218835.63232,0.01998924988612,3.779382690967E-17,-0.9998001949835
546,GRAV,14555624.44566,0.02363878044967,3.779381992126E-17,-0.9997205649875
547,GRAV,14397998.95822,0.01213901134856,3.779101647627E-17,-0.9999263194873
548,GRAV,14397998.95822,0.01213901134856,3.779101647627E-17,-0.9999263194873
549,GRAV,14034197.65309,0.007345987325994,3.778875357985E-17,-0.9999730178711
550,GRAV,14155850.58808,0.009893800909329,3.779015271923E-17,-0.999951055154
551,GRAV,14062314.88482,-0.01810642616146,3.775971631787E-17,-0.9998360652285
552,GRAV,14072525.27394,0.05393478160862,3.777837185676E-17,-0.9985444603686
553,GRAV,13976495.72318,-0.02603091040794,3.774580304341E-17,-0.9996611384381
554,GRAV,14099684.85144,-0.03162523620618,3.773431256912E-17,-0.999499797116
555,GRAV,14080123.43785,0.03331239758376,3.779306326144E-17,-0.9994449880645
556,GRAV,14077231.44896,0.0305628453089,3.779381080277E-17,-0.9995328471274
557,GRAV,14258943.32134,0.03981654339536,3.778993726208E-17,-0.9992070070171
558,GRAV,14258943.32134,0.03981654339536,3.778993726208E-17,-0.9992070070171
559,GRAV,14482015.73181,0.004336189413616,3.778603573649E-17,-0.9999905986865
560,GRAV,13802068.30664,-0.04055078316199,3.771417558107E-17,-0.9991774787218
561,GRAV,14305184.26809,-0.0141937424492,3.77654570601E-17,-0.9998992637637
562,GRAV,14073588.36573,0.05361791472587,3.777871826876E-17,-0.9985615250051
563,GRAV,14469376.88221,0.03984912772302,3.778965764747E-17,-0.99920570806
564,GRAV,13802068.30664,-0.04055078316199,3.771417558107E-17,-0.9991774787218
565,GRAV,14305184.26809,-0.0141937424492,3.77654570601E-17,-0.9998992637637
566,GRAV,14341726.11091,0.002970055956383,3.778511810806E-17,-0.9999955893741
567,GRAV,14341726.11091,0.002970055956383,3.778511810806E-17,-0.9999955893741
568,GRAV,13516856.11292,-0.04609907977946,3.770028609613E-17,-0.9989368723015
569,GRAV,13563579.0466,-0.03588345178816,3.772561236456E-17,-0.999355981564
570,GRAV,13448987.0146,-0.03686644546771,3.772350164607E-17,-0.9993202015363
571,GRAV,13496988.48582,-0.02662888489709,3.774529904423E-17,-0.9996453883699
572,GRAV,13563579.0466,-0.03588345178816,3.772561236456E-17,-0.999355981564
573,GRAV,13611710.03741,-0.02573529999591,3.774685963678E-17,-0.9996687923178
574,GRAV,13379614.66353,0.1017047882672,3.768318062524E-17,-0.9948146239594
575,GRAV,13586061.12755,0.0938942379466,3.770456399982E-17,-0.9955821774622
576,GRAV,13496433.64277,0.1007116754085,3.768590063871E-17,-0.9949156539307
577,GRAV,13156475.74815,0.09838990641009,3.769298929775E-17,-0.9951479419245
578,GRAV,13050394.95234,0.09399221486198,3.770507988867E-17,-0.9955729323085
579,GRAV,13005257.66019,0.08463607622174,3.772807310835E-17,-0.9964119301784
580,GRAV,12986688.7409,-0.007805748893254,3.777590792386E-17,-0.999969534678
581,GRAV,13095950.93353,-0.0117651683579,3.777057337824E-17,-0.9999307880116
582,GRAV,13221658.71171,-0.009120092145325,3.777390707549E-17,-0.9999584110948
583,GRAV,12816917.15524,0.01652475713436,3.779494148451E-17,-0.9998634568788
584,GRAV,12939711.37669,0.0135230866707,3.779364503555E-17,-0.9999085588827
585,GRAV,12816917.15524,0.01652475713436,3.779494148451E-17,-0.9998634568788
586,GRAV,12939711.37669,0.0135230866707,3.779364503555E-17,-0.9999085588827
587,GRAV,12822230.26994,0.03759693697194,3.779311754653E-17,-0.9992929852302
588,GRAV,12741026.1939,0.0449680392019,3.778864410847E-17,-0.9989884260843
589,GRAV,12741026.1939,0.0449680392019,3.778864410847E-17,-0.9989884260843
590,GRAV,12822230.26994,0.03759693697194,3.779311754653E-17,-0.9992929852302
591,GRAV,12822086.27196,0.06733044170895,3.776195660595E-17,-0.9977307310188
592,GRAV,12940586.44511,0.07027275539971,3.775686534216E-17,-0.9975278140726
593,GRAV,12940586.44511,0.07027275539971,3.775686534216E-17,-0.9975278140726
594,GRAV,12822086.27196,0.06733044170895,3.776195660595E-17,-0.9977307310188
595,GRAV,14172079.48523,0.04627182240725,3.778558762841E-17,-0.9989288855825
596,GRAV,14092318.72983,0.04197929794958,3.778883113852E-17,-0.9991184807337
597,GRAV,14131307.56744,0.02183755060276,3.779420872381E-17,-0.9997615322584
598,GRAV,14227342.01728,0.02186827781056,3.779408986431E-17,-0.999760860619
599,GRAV,14176156.58867,0.03326550399558,3.779295519567E-17,-0.9994465499685
600,GRAV,14092467.70754,0.03746177275003,3.779138339391E-17,-0.9992980614323
601,GRAV,14091373.48892,0.03714562565095,3.779153450999E-17,-0.999309863103
602,GRAV,14175081.09582,0.03295085596092,3.779305561492E-17,-0.9994569731066
603,GRAV,10299295.3034,0.05906234707635,3.777887792702E-17,-0.9982542958374
604,GRAV,5668930.59901,0.05750513202887,3.780115260017E-17,-0.9983452107314
605,GRAV,5668930.59901,0.05750513202887,3.780115260017E-17,-0.9983452107314
606,GRAV,5674352.616279,0.08832711223861,3.774485556683E-17,-0.9960915225237
607,GRAV,7987359.867983,0.07493734118579,3.776067465034E-17,-0.9971882444634
608,GRAV,10301161.26543,0.01653057405968,3.779982050168E-17,-0.9998633607255
609,GRAV,7983027.386152,0.04205693261075,3.780268045778E-17,-0.9991152157881
610,GRAV,10298175.56372,0.03354872762869,3.779966205345E-17,-0.9994370829995
611,GRAV,7987359.867763,0.009130899223922,3.780367661378E-17,-0.9999583124708
612,GRAV,5670964.462793,0.01114144449002,3.7817878799E-17,-0.9999379321811
613,GRAV,10298175.56372,0.03354872762869,3.779966205345E-17,-0.9994370829995
614,GRAV,7983027.386152,0.04205693261075,3.780268045778E-17,-0.9991152157881
615,GRAV,2104345.98947,0.1459798288448,3.761840735949E-17,-0.9892875666713
616,GRAV,1985388.638165,0.3075708727852,3.635089474498E-17,-0.9515251747664
617,GRAV,2105769.415835,-0.1873480166812,3.704213532323E-17,-0.9822936020588
618,GRAV,1983665.420121,-0.2932119937518,3.59593294814E-17,-0.9560474500359
619,GRAV,4791758.721297,-0.07973615771169,3.76231811757E-17,-0.9968160036603
620,GRAV,1998222.230527,-0.07606218866893,3.771213909963E-17,-0.9971030756421
621,GRAV,2125708.145514,0.4039611781783,3.504481107478E-17,-0.914776129184
622,GRAV,1730381.291855,-0.3041148774715,3.583915321189E-17,-0.9526353663918
623,GRAV,2333958.861887,-0.3039536369684,3.580299407615E-17,-0.9526868250237
624,GRAV,3808251.027985,-0.2472548146699,3.642781216179E-17,-0.9689504923486
625,GRAV,2674356.641454,-0.259613120656,3.632246527476E-17,-0.9657127044744
626,GRAV,4585952.407585,0.2162013822602,3.71297010688E-17,-0.9763487913183
627,GRAV,3742105.252477,-0.3367573002823,3.531200340581E-17,-0.9415914829195
628,GRAV,2335124.088504,0.3440090283259,3.58914196301E-17,-0.9389663404139
629,GRAV,1747049.798601,-0.05528712356085,3.78016451353E-17,-0.9984704972949
630,GRAV,3058072.6737,-0.05986422837683,3.772458125693E-17,-0.998206528811
631,GRAV,3493394.394486,-0.07987200832959,3.764249625435E-17,-0.9968051275377
632,GRAV,2821987.107812,-0.09182162913699,3.760985659058E-17,-0.9957754708882
633,GRAV,3696972.149239,-0.1219998328153,3.74375768926E-17,-0.9925301208493
634,GRAV,3780424.620709,0.01192504063071,3.784084259078E-17,-0.999928894175
635,GRAV,3467131.733941,-0.1520219931887,3.725722250442E-17,-0.9883771110193
636,GRAV,4024501.744984,0.03009863520766,3.783932603128E-17,-0.9995469334447
637,GRAV,3028036.747252,-0.1423777343486,3.733115994229E-17,-0.9898123967509
638,GRAV,3969308.376744,-0.03197631141373,3.777989323649E-17,-0.999488627003
639,GRAV,4958722.268165,-0.04377598319826,3.773908918199E-17,-0.9990413721638
640,GRAV,4098430.037536,-0.3480975699873,3.513935182399E-17,-0.9374583093498
641,GRAV,2803240.014891,-0.3757888710634,3.473619889267E-17,-0.9267053061167
642,GRAV,2480591.684332,-0.4307615874209,3.378121127109E-17,-0.9024657637842
643,GRAV,4662288.131897,0.2896898557898,3.64714407903E-17,-0.957120571011
644,GRAV,4762096.186537,0.01813963910125,3.782917513781E-17,-0.9998354632105
645,GRAV,4158912.471321,-0.266435200167,3.621167690966E-17,-0.963852833223
646,GRAV,1597763.01907,-0.1775683401239,3.715847630336E-17,-0.9841084719611
647,GRAV,4901980.955946,-0.1088956196194,3.749034396397E-17,-0.9940531897377
648,GRAV,3853490.527036,-0.2030164513509,3.685457689905E-17,-0.9791753267321
649,GRAV,2278437.988036,-0.2325501610521,3.662394039887E-17,-0.9725844038409
650,GRAV,4557946.377326,0.1781339705965,3.738358596906E-17,-0.9840062441466
651,GRAV,3633564.177253,-0.2362342380515,3.654504938881E-17,-0.9716961380865
652,GRAV,2626042.486715,-0.1960112650495,3.694604657106E-17,-0.9806016438767
653,GRAV,2846312.429809,-0.241273396644,3.651302668704E-17,-0.9704571850792
654,GRAV,3564177.949918,-0.3302150289402,3.540893984431E-17,-0.9439057339915
655,GRAV,2192257.667236,0.06399405625661,3.78639181341E-17,-0.9979502797053
656,GRAV,1851743.747443,-0.1831311302627,3.709277677678E-17,-0.9830884950648
657,GRAV,4775642.551374,0.1208132974764,3.765474378028E-17,-0.9926752475774
658,GRAV,3292317.14502,-0.3890365661239,3.450316891849E-17,-0.9212223131354
659,GRAV,4649452.113343,-0.1028948021572,3.752293167046E-17,-0.9946922437061
660,GRAV,4232516.71377,0.2306835635527,3.702254277323E-17,-0.9730288246021
661,GRAV,3578315.024011,0.4987760391296,3.327028563583E-17,-0.8667309056392
662,GRAV,4763007.623847,0.2097514709157,3.717468277619E-17,-0.9777547343014
663,GRAV,2166069.134323,-0.3310023114357,3.544414101188E-17,-0.9436299432639
664,GRAV,2967737.451912,-0.3524125067926,3.509817153864E-17,-0.9358447654692
665,GRAV,4916436.705689,0.03716324308658,3.782542405477E-17,-0.9993092080849
666,GRAV,4671057.496155,0.05097572248423,3.781807977901E-17,-0.9986998927191
667,GRAV,4200376.922839,-0.225883120533,3.663807019705E-17,-0.9741544106856
668,GRAV,3721631.483488,-0.3814100612922,3.462156963848E-17,-0.924405952569
669,GRAV,3928412.439526,0.1377639000151,3.759870664396E-17,-0.9904650967362
670,GRAV,2683173.724584,0.059981936132,3.784821040216E-17,-0.9981994627016
671,GRAV,3677964.153238,0.1264675528215,3.764942791108E-17,-0.9919707445703
672,GRAV,2930463.867252,0.08087192281705,3.780401647497E-17,-0.9967245016051
673,GRAV,1851743.747443,-0.1831311302627,3.709277677678E-17,-0.9830884950648
674,GRAV,3462156.643423,-0.4400015599892,3.35745454383E-17,-0.8979970084622
675,GRAV,4971732.91969,0.1536856274599,3.751137016179E-17,-0.9881197943125
676,GRAV,5015908.046122,0.1039814368975,3.770832182492E-17,-0.9945792380604
677,GRAV,4315109.369707,0.3094939782489,3.625953393274E-17,-0.9509014025795
678,GRAV,4202155.806998,0.1896188317105,3.731795690264E-17,-0.9818577792434
679,GRAV,5107124.075643,-0.02364244821226,3.778208471472E-17,-0.9997204782551
680,GRAV,5063744.762359,-0.07283162648326,3.76467251955E-17,-0.9973442505894
681,GRAV,4079744.838939,-0.388735087479,3.449325159404E-17,-0.9213495708811
682,GRAV,4836549.675648,0.2808151002777,3.656090247719E-17,-0.9597618868532
683,GRAV,2323322.325908,-0.463173880469,3.314612675102E-17,-0.8862674294203
684,GRAV,2882367.327879,-0.4277701013782,3.382332292903E-17,-0.9038875706452
685,GRAV,4710288.468763,0.3248594539948,3.607486642206E-17,-0.9457623037266
686,GRAV,4334782.89354,-0.2748273312292,3.611222738228E-17,-0.9614935974875
687,GRAV,3215575.844656,-0.4565137308935,3.325204023026E-17,-0.8897163668865
688,GRAV,4628706.837757,-0.2349317466836,3.654304743601E-17,-0.972011869475
689,GRAV,3531992.600927,0.4366530175306,3.445548664604E-17,-0.8996300029909
690,GRAV,3330636.118916,0.5130333788246,3.297315539118E-17,-0.8583686575195
691,GRAV,4366927.490429,0.3469406195249,3.580240723649E-17,-0.9378870968958
692,GRAV,4276788.346714,-0.3530428797827,3.506220875473E-17,-0.9356071424667
693,GRAV,2569673.507688,-0.4857067528198,3.265579449859E-17,-0.8741218166052
694,GRAV,3771873.405746,0.189083487109,3.732830295371E-17,-0.9819610149607
695,GRAV,2764168.327362,0.1479641458869,3.758009582526E-17,-0.9889927257225
696,GRAV,3267326.796436,0.1717301102788,3.744274127691E-17,-0.9851440347602
697,GRAV,3250170.039533,0.3764979530765,3.541707135409E-17,-0.9264174498191
698,GRAV,3030143.645029,0.4587751620118,3.406985763788E-17,-0.8885523905325
699,GRAV,2996932.684734,0.3829355527967,3.532996389912E-17,-0.9237750605014
700,GRAV,4020216.471332,0.4490873319389,3.422637133039E-17,-0.8934878668969
701,GRAV,4220040.412986,0.4146947231414,3.481324480056E-17,-0.9099605961792
702,GRAV,4649452.113343,-0.1028948021572,3.752293167046E-17,-0.9946922437061
703,GRAV,4142304.824663,0.3205804053623,3.613341013812E-17,-0.947221306611
704,GRAV,4056195.029857,0.238847842772,3.695835000605E-17,-0.9710570055374
705,GRAV,3987151.193647,0.3919855670569,3.517358031246E-17,-0.9199713665213
706,GRAV,2437069.655868,0.2051021063832,3.725884878735E-17,-0.978740581542
707,GRAV,3372689.293601,0.239913662747,3.69622126439E-17,-0.9707942286743
708,GRAV,3119043.516758,0.235041269891,3.700880657432E-17,-0.9719853915816
709,GRAV,2349116.17457,0.5033303124165,3.321240021359E-17,-0.864094090133
710,GRAV,1771101.448572,0.376064010909,3.548908803349E-17,-0.9265936864122
711,GRAV,2593017.954059,0.5281506612904,3.266105567968E-17,-0.8491506809622
712,GRAV,2541451.607783,0.4434401097307,3.436448070063E-17,-0.8963040048343
713,GRAV,4621924.283213,-0.1768213840885,3.705943495439E-17,-0.9842429568603
714,GRAV,4875879.040537,-0.1789738506377,3.703984020636E-17,-0.9838538310074
715,GRAV,4367994.210957,-0.1744176420336,3.708109862929E-17,-0.9846717656902
716,GRAV,4621924.283213,-0.1768213840885,3.705943495439E-17,-0.9842429568603
717,GRAV,4584519.917345,-0.01714918500735,3.779887935977E-17,-0.9998529419138
718,GRAV,4435569.431728,-0.03944224279414,3.775605033094E-17,-0.9992218519845
719,GRAV,4488113.161594,0.01628903763742,3.78319270355E-17,-0.9998673248251
720,GRAV,4335852.057257,-0.005355575261149,3.781813468809E-17,-0.999985658804
721,GRAV,4435569.431728,-0.03944224279414,3.775605033094E-17,-0.9992218519845
722,GRAV,4288977.773027,-0.06324976417146,3.768950521492E-17,-0.9979977291218
723,GRAV,1985388.638165,0.3075708727852,3.635089474498E-17,-0.9515251747664
724,GRAV,2104345.98947,0.1459798288448,3.761840735949E-17,-0.9892875666713
725,GRAV,1639858.210691,0.2548950031685,3.69119646346E-17,-0.9669687364955
726,GRAV,1782032.252799,0.06427269469728,3.789038016351E-17,-0.9979323728171

***********************************************************
** MbDAssembly gravity
*DLOAD
Eall,GRAV,9810,0,0,-1

***********************************************************
** Outputs --> frd file
*NODE FILE
U
*EL FILE
S, E
*OUTPUT, FREQUENCY=1
***********************************************************
*END STEP

***********************************************************
** CalculiX Input file
**   written by    --> FreeCAD 26.3.0
**   written on    --> Sat Sep  5 11:49:41 2026
**   file name     --> RealisticPendulum.FCStd
**   analysis name --> FEMPart002
**
**
***********************************************************
**  About units:
**  See ccx manual, ccx does not know about any unit.
**  Golden rule: The user must make sure that the numbers they provide have consistent units.
**  The user is the FreeCAD calculix writer module ;-)
**
**  The unit system which is used at Guido Dhondt's company: mm, N, s, K
**  Since Length and Mass are connected by Force, if Length is mm the Mass is in t to get N
**  The following units are used to write to inp file:
**
**  Length: mm (this includes the mesh geometry)
**  Mass: t
**  TimeSpan: s
**  Temperature: K
**
**  This leads to:
**  Force: N
**  Pressure: N/mm^2 == MPa (Young's Modulus has unit Pressure)
**  Density: t/mm^3
**  Gravity: mm/s^2
**  Thermal conductivity: t*mm/K/s^3 == as W/m/K == kW/mm/K
**  Specific Heat: mm^2/s^2/K = J/kg/K == kJ/t/K
**
