** written by FreeCAD inp file writer for CalculiX,Abaqus meshes
** highest dimension mesh elements only.

** Nodes
*Node, NSET=Nall
1, -5e-15, 5, 212
2, -5e-15, -5, 212
3, -2e-15, 5, 200
4, -2e-15, -5, 200
5, -5, -3, 180
6, -5, -3, 48
7, -5, 3, 180
8, -5, 3, 48
9, 5, -3, 180
10, 5, -3, 48
11, 5, 3, 180
12, 5, 3, 48
13, -7e-15, 5, 76
14, -7e-15, -5, 76
15, 10, 5, 209.3205080757
16, 17.32050807569, 5, 202
17, 20, 5, 192
18, 17.32050807569, 5, 182
19, 10, 5, 174.6794919243
20, -1.130139009627e-13, 5, 172
21, -10, 5, 174.6794919243
22, -17.32050807569, 5, 182
23, -20, 5, 192
24, -17.32050807569, 5, 202
25, -10, 5, 209.3205080757
26, 5.17638090205, 5, 211.3185165258
27, 14.14213562373, 5, 206.1421356237
28, 19.31851652578, 5, 197.1763809021
29, 19.31851652578, 5, 186.8236190979
30, 14.14213562373, 5, 177.8578643763
31, 5.17638090205, 5, 172.6814834742
32, -5.176380902051, 5, 172.6814834742
33, -14.14213562373, 5, 177.8578643763
34, -19.31851652578, 5, 186.8236190979
35, -19.31851652578, 5, 197.1763809021
36, -14.14213562373, 5, 206.1421356237
37, -5.17638090205, 5, 211.3185165258
38, -4.9e-15, 0, 212
39, 10, -5, 209.3205080757
40, 17.32050807569, -5, 202
41, 20, -5, 192
42, 17.32050807569, -5, 182
43, 10, -5, 174.6794919243
44, -1.130139009627e-13, -5, 172
45, -10, -5, 174.6794919243
46, -17.32050807569, -5, 182
47, -20, -5, 192
48, -17.32050807569, -5, 202
49, -10, -5, 209.3205080757
50, 5.17638090205, -5, 211.3185165258
51, 14.14213562373, -5, 206.1421356237
52, 19.31851652578, -5, 197.1763809021
53, 19.31851652578, -5, 186.8236190979
54, 14.14213562373, -5, 177.8578643763
55, 5.17638090205, -5, 172.6814834742
56, -5.176380902051, -5, 172.6814834742
57, -14.14213562373, -5, 177.8578643763
58, -19.31851652578, -5, 186.8236190979
59, -19.31851652578, -5, 197.1763809021
60, -14.14213562373, -5, 206.1421356237
61, -5.17638090205, -5, 211.3185165258
62, 4, 5, 198.9282032303
63, 6.928203230276, 5, 196
64, 8, 5, 192
65, 6.928203230275, 5, 188
66, 4, 5, 185.0717967697
67, -4.520556038509e-14, 5, 184
68, -4, 5, 185.0717967697
69, -6.928203230276, 5, 188
70, -8, 5, 192
71, -6.928203230275, 5, 196
72, -4, 5, 198.9282032303
73, 2.07055236082, 5, 199.7274066103
74, 5.656854249492, 5, 197.6568542495
75, 7.727406610313, 5, 194.0705523608
76, 7.727406610313, 5, 189.9294476392
77, 5.656854249492, 5, 186.3431457505
78, 2.07055236082, 5, 184.2725933897
79, -2.07055236082, 5, 184.2725933897
80, -5.656854249492, 5, 186.3431457505
81, -7.727406610313, 5, 189.9294476392
82, -7.727406610313, 5, 194.0705523608
83, -5.656854249492, 5, 197.6568542495
84, -2.07055236082, 5, 199.7274066103
85, 4, -5, 198.9282032303
86, 6.928203230276, -5, 196
87, 8, -5, 192
88, 6.928203230275, -5, 188
89, 4, -5, 185.0717967697
90, -4.520556038509e-14, -5, 184
91, -4, -5, 185.0717967697
92, -6.928203230276, -5, 188
93, -8, -5, 192
94, -6.928203230275, -5, 196
95, -4, -5, 198.9282032303
96, 2.07055236082, -5, 199.7274066103
97, 5.656854249492, -5, 197.6568542495
98, 7.727406610313, -5, 194.0705523608
99, 7.727406610313, -5, 189.9294476392
100, 5.656854249492, -5, 186.3431457505
101, 2.07055236082, -5, 184.2725933897
102, -2.07055236082, -5, 184.2725933897
103, -5.656854249492, -5, 186.3431457505
104, -7.727406610313, -5, 189.9294476392
105, -7.727406610313, -5, 194.0705523608
106, -5.656854249492, -5, 197.6568542495
107, -2.07055236082, -5, 199.7274066103
108, -1.96e-15, -1.666666666667, 200
109, -1.96e-15, 1.666666666667, 200
110, -1.96e-15, -3.333333333333, 200
111, -1.96e-15, 8.881784197001e-16, 200
112, -1.96e-15, 3.333333333333, 200
113, -5, -3, 114
114, -5, 0, 180
115, -5, 3, 114
116, -5, 0, 48
117, 5, -3, 114
118, 5, 0, 180
119, 5, 3, 114
120, 5, 0, 48
121, 0, -3, 48
122, 0, -3, 180
123, 0, 3, 48
124, 0, 3, 180
125, 14, 5, 72.24871130596
126, 24.24871130596, 5, 62
127, 28, 5, 48
128, 24.24871130596, 5, 34
129, 14, 5, 23.75128869404
130, -1.706539592236e-13, 5, 20
131, -14, 5, 23.75128869404
132, -24.24871130596, 5, 34
133, -28, 5, 48
134, -24.24871130596, 5, 62
135, -14, 5, 72.24871130596
136, 7.246933262871, 5, 75.04592313609
137, 19.79898987322, 5, 67.79898987322
138, 27.04592313609, 5, 55.24693326287
139, 27.04592313609, 5, 40.75306673713
140, 19.79898987322, 5, 28.20101012678
141, 7.24693326287, 5, 20.95407686391
142, -7.246933262871, 5, 20.95407686391
143, -19.79898987322, 5, 28.20101012678
144, -27.04592313609, 5, 40.75306673713
145, -27.04592313609, 5, 55.24693326287
146, -19.79898987322, 5, 67.79898987322
147, -7.24693326287, 5, 75.04592313609
148, -6.86e-15, 0, 76
149, 14, -5, 72.24871130596
150, 24.24871130596, -5, 62
151, 28, -5, 48
152, 24.24871130596, -5, 34
153, 14, -5, 23.75128869404
154, -1.706539592236e-13, -5, 20
155, -14, -5, 23.75128869404
156, -24.24871130596, -5, 34
157, -28, -5, 48
158, -24.24871130596, -5, 62
159, -14, -5, 72.24871130596
160, 7.246933262871, -5, 75.04592313609
161, 19.79898987322, -5, 67.79898987322
162, 27.04592313609, -5, 55.24693326287
163, 27.04592313609, -5, 40.75306673713
164, 19.79898987322, -5, 28.20101012678
165, 7.24693326287, -5, 20.95407686391
166, -7.246933262871, -5, 20.95407686391
167, -19.79898987322, -5, 28.20101012678
168, -27.04592313609, -5, 40.75306673713
169, -27.04592313609, -5, 55.24693326287
170, -19.79898987322, -5, 67.79898987322
171, -7.24693326287, -5, 75.04592313609
172, 5.17638090205, 0, 211.3185165258
173, -5.17638090205, 0, 211.3185165258
174, 10, 0, 209.3205080757
175, -10, 0, 209.3205080757
176, 14.14213562373, 0, 206.1421356237
177, 19.31851652578, 0, 197.1763809021
178, 20, 0, 192
179, 17.32050807569, 0, 202
180, 19.31851652578, 0, 186.8236190979
181, 17.32050807569, 0, 182
182, 14.14213562373, 0, 177.8578643763
183, 10, 0, 174.6794919243
184, 5.17638090205, 0, 172.6814834742
185, -5.176380902051, 0, 172.6814834742
186, -1.130139009627e-13, 0, 172
187, -14.14213562373, 0, 177.8578643763
188, -17.32050807569, 0, 182
189, -10, 0, 174.6794919243
190, -19.31851652578, 0, 186.8236190979
191, -19.31851652578, 0, 197.1763809021
192, -17.32050807569, 0, 202
193, -20, 0, 192
194, -14.14213562373, 0, 206.1421356237
195, 3.416237101988, 5, 204.7495704353
196, 9.333333333333, 5, 182.6666666667
197, -3.472079033996, 5, 204.5411655079
198, -9.286798389993, 5, 201.0901942513
199, -12.74957043532, 5, 188.583762898
200, -12.38084668855, 5, 195.2789928582
201, -9.124928405887, 5, 182.7225085987
202, 3.26367410655, 5, 179.4029925601
203, 12.59700743988, 5, 188.7363258935
204, -3.31020904989, 5, 179.6461316421
205, 9.277491401325, 5, 201.1249284059
206, 12.35386835786, 5, 195.3102090499
207, 6.708118550994, 5, 207.0350392555
208, 1.708118550994, 5, 208.3747852177
209, -1.736039516998, 5, 208.2705827539
210, -6.736039516998, 5, 206.9308367918
211, -0.02792096600395, 5, 204.6453679716
212, 1.708118550994, 5, 202.3747852177
213, 3.708118550994, 5, 201.8388868328
214, -3.736039516998, 5, 201.7346843691
215, -1.736039516998, 5, 202.2705827539
216, 13.29899973851, 5, 201.5624642029
217, 9.638745700663, 5, 205.2227182408
218, 6.346864251657, 5, 202.9372494206
219, 16.17693417893, 5, 193.6551045249
220, 14.83718821678, 5, 198.6551045249
221, 10.81567987959, 5, 198.2175687279
222, 14.95875775779, 5, 185.3681629467
223, 16.29850371994, 5, 190.3681629467
224, 12.47543789887, 5, 192.0232674717
225, 9.666666666667, 5, 178.6730792955
226, 13.32692070451, 5, 182.3333333333
227, 10.96517038661, 5, 185.7014962801
228, 1.631837053275, 5, 175.7014962801
229, 6.631837053275, 5, 177.0412422422
230, 6.298503719941, 5, 181.0348296134
231, -6.655104524945, 5, 177.1628117832
232, -1.655104524945, 5, 175.8230658211
233, -0.02326747167005, 5, 179.5245621011
234, -13.22271824079, 5, 182.3612542993
235, -9.562464202944, 5, 178.7010002615
236, -6.217568727888, 5, 181.1843201204
237, -16.37478521766, 5, 190.291881449
238, -15.03503925551, 5, 185.291881449
239, -10.9372494206, 5, 185.6531357483
240, -14.85067738212, 5, 198.6394964291
241, -16.19042334427, 5, 193.6394964291
242, -12.56520856193, 5, 191.9313778781
243, -9.643399194997, 5, 205.2053511635
244, -13.30365323284, 5, 201.5450971257
245, -10.83382253927, 5, 198.1845935548
246, -6.379438711995, 5, 202.8156798796
247, 6.638745700663, 5, 200.0265658181
248, 8.1028473158, 5, 198.5624642029
249, 9.641035794069, 5, 195.6551045249
250, 10.17693417893, 5, 193.6551045249
251, 10.29850371994, 5, 190.3681629467
252, 9.762605335079, 5, 188.3681629467
253, 8.130768281804, 5, 185.3333333333
254, 6.666666666667, 5, 183.8692317182
255, 3.631837053275, 5, 182.2373946649
256, 1.631837053275, 5, 181.7014962801
257, -1.655104524945, 5, 181.8230658211
258, -3.655104524945, 5, 182.3589642059
259, -6.562464202943, 5, 183.8971526842
260, -8.026565818081, 5, 185.3612542993
261, -9.838886832798, 5, 188.291881449
262, -10.37478521766, 5, 190.291881449
263, -10.19042334427, 5, 193.6394964291
264, -9.654524959411, 5, 195.6394964291
265, -8.107500810134, 5, 198.5450971257
266, -6.643399194997, 5, 200.0091987408
267, 3.416237101988, -5, 204.7495704353
268, 9.333333333333, -5, 182.6666666667
269, -3.472079033996, -5, 204.5411655079
270, -9.286798389993, -5, 201.0901942513
271, -12.74957043532, -5, 188.583762898
272, -12.38084668855, -5, 195.2789928582
273, -9.124928405887, -5, 182.7225085987
274, 3.26367410655, -5, 179.4029925601
275, 12.59700743988, -5, 188.7363258935
276, -3.31020904989, -5, 179.6461316421
277, 9.277491401325, -5, 201.1249284059
278, 12.35386835786, -5, 195.3102090499
279, 1.708118550994, -5, 208.3747852177
280, 6.708118550994, -5, 207.0350392555
281, -6.736039516998, -5, 206.9308367918
282, -1.736039516998, -5, 208.2705827539
283, -0.02792096600395, -5, 204.6453679716
284, 3.708118550994, -5, 201.8388868328
285, 1.708118550994, -5, 202.3747852177
286, -1.736039516998, -5, 202.2705827539
287, -3.736039516998, -5, 201.7346843691
288, 9.638745700663, -5, 205.2227182408
289, 13.29899973851, -5, 201.5624642029
290, 6.346864251657, -5, 202.9372494206
291, 14.83718821678, -5, 198.6551045249
292, 16.17693417893, -5, 193.6551045249
293, 10.81567987959, -5, 198.2175687279
294, 16.29850371994, -5, 190.3681629467
295, 14.95875775779, -5, 185.3681629467
296, 12.47543789887, -5, 192.0232674717
297, 13.32692070451, -5, 182.3333333333
298, 9.666666666667, -5, 178.6730792955
299, 10.96517038661, -5, 185.7014962801
300, 6.631837053275, -5, 177.0412422422
301, 1.631837053275, -5, 175.7014962801
302, 6.298503719941, -5, 181.0348296134
303, -1.655104524945, -5, 175.8230658211
304, -6.655104524945, -5, 177.1628117832
305, -0.02326747167005, -5, 179.5245621011
306, -9.562464202944, -5, 178.7010002615
307, -13.22271824079, -5, 182.3612542993
308, -6.217568727888, -5, 181.1843201204
309, -15.03503925551, -5, 185.291881449
310, -16.37478521766, -5, 190.291881449
311, -10.9372494206, -5, 185.6531357483
312, -16.19042334427, -5, 193.6394964291
313, -14.85067738212, -5, 198.6394964291
314, -12.56520856193, -5, 191.9313778781
315, -13.30365323284, -5, 201.5450971257
316, -9.643399194997, -5, 205.2053511635
317, -10.83382253927, -5, 198.1845935548
318, -6.379438711995, -5, 202.8156798796
319, 8.1028473158, -5, 198.5624642029
320, 6.638745700663, -5, 200.0265658181
321, 10.17693417893, -5, 193.6551045249
322, 9.641035794069, -5, 195.6551045249
323, 9.762605335079, -5, 188.3681629467
324, 10.29850371994, -5, 190.3681629467
325, 6.666666666667, -5, 183.8692317182
326, 8.130768281804, -5, 185.3333333333
327, 1.631837053275, -5, 181.7014962801
328, 3.631837053275, -5, 182.2373946649
329, -3.655104524945, -5, 182.3589642059
330, -1.655104524945, -5, 181.8230658211
331, -8.026565818081, -5, 185.3612542993
332, -6.562464202943, -5, 183.8971526842
333, -10.37478521766, -5, 190.291881449
334, -9.838886832798, -5, 188.291881449
335, -9.654524959411, -5, 195.6394964291
336, -10.19042334427, -5, 193.6394964291
337, -6.643399194997, -5, 200.0091987408
338, -8.107500810134, -5, 198.5450971257
339, -7.751173309934, 0.0004090689846006, 193.9797253141
340, -5.900629000126, 0.008584387974766, 197.4020900958
341, 5.900629000126, 0.008584387974766, 197.4020900958
342, 7.751173309934, 0.0004090689846006, 193.9797253141
343, -7.727406610313, 0, 189.9294476392
344, -5.656854249492, 0, 186.3431457505
345, -2.07055236082, 3.333333333333, 199.7274066103
346, -3.330387815149, 0.3820363689807, 199.2738240975
347, 3.330387815149, 0.3820363689807, 199.2738240975
348, 2.07055236082, 3.333333333333, 199.7274066103
349, 1.816621978181, -2.083765626184, 199.7910130656
350, -1.816621978181, -2.083765626184, 199.7910130656
351, -2.07055236082, 0, 184.2725933897
352, 2.07055236082, 0, 184.2725933897
353, 5.656854249492, -8.881784197001e-16, 186.3431457505
354, 7.727406610313, 0, 189.9294476392
355, 1.04420953776, 4.166666666667, 199.931558891
356, 3.061467458921, 4.166666666667, 199.3910362601
357, -1.04420953776, 4.166666666667, 199.931558891
358, -3.061467458921, 4.166666666667, 199.3910362601
359, -1.04420953776, 2.5, 199.931558891
360, 1.04420953776, 2.5, 199.931558891
361, 0.914301775996, -3.541882813092, 199.9475815354
362, 2.940133162333, -3.541882813092, 199.440135549
363, -0.914301775996, -3.541882813092, 199.9475815354
364, -2.940133162333, -3.541882813092, 199.440135549
365, 0.914301775996, -1.875216146425, 199.9475815354
366, -0.914301775996, -1.875216146425, 199.9475815354
367, 5.008779190018, 2.504292193987, 198.237958883
368, 6.452611739297, 2.504292193987, 196.7290381413
369, 4.709433607583, 0.1953103784777, 198.4669339795
370, 3.669265570394, 2.69101818449, 199.1089021778
371, 2.709976562646, 1.857684851157, 199.5270197974
372, 7.408873150076, 2.500204534492, 195.018045501
373, 7.937549574002, 2.500204534492, 192.9976506203
374, 7.037120984672, 0.004496728479683, 195.8051186903
375, 7.93155889099, 2.5, 190.9557904622
376, 7.39103626009, 2.5, 188.9385325411
377, 7.999862273683, 0.0002045344923003, 191.9530574595
378, 6.34682672233, 2.5, 187.1299085679
379, 4.87009143207, 2.5, 185.6531732777
380, 6.928203230275, 0, 188
381, 3.061467458921, 2.5, 184.6089637399
382, 1.04420953776, 2.5, 184.068441109
383, 4, 0, 185.0717967697
384, -3.061467458921, 2.5, 184.6089637399
385, -1.04420953776, 2.5, 184.068441109
386, -4.165284670629e-14, 0, 184
387, -4.87009143207, 2.5, 185.6531732777
388, -6.34682672233, 2.5, 187.1299085679
389, -4, 0, 185.0717967697
390, -7.39103626009, 2.5, 188.9385325411
391, -7.93155889099, 2.5, 190.9557904622
392, -6.928203230276, 0, 188
393, -7.937549574002, 2.500204534492, 192.9976506203
394, -7.408873150076, 2.500204534492, 195.018045501
395, -7.999862273683, 0.0002045344923003, 191.9530574595
396, -6.452611739297, 2.504292193987, 196.7290381413
397, -5.008779190018, 2.504292193987, 198.237958883
398, -7.037120984672, 0.004496728479683, 195.8051186903
399, -4.709433607583, 0.1953103784777, 198.4669339795
400, -3.669265570394, 2.69101818449, 199.1089021778
401, -2.709976562646, 1.857684851157, 199.5270197974
402, 6.452611739297, -2.495707806013, 196.7290381413
403, 5.008779190018, -2.495707806013, 198.237958883
404, 3.669265570394, -2.30898181551, 199.1089021778
405, 2.586464490448, -0.8508646286017, 199.570350153
406, 7.937549574002, -2.499795465508, 192.9976506203
407, 7.408873150076, -2.499795465508, 195.018045501
408, 7.39103626009, -2.5, 188.9385325411
409, 7.93155889099, -2.5, 190.9557904622
410, 4.87009143207, -2.5, 185.6531732777
411, 6.34682672233, -2.5, 187.1299085679
412, 1.04420953776, -2.5, 184.068441109
413, 3.061467458921, -2.5, 184.6089637399
414, -1.04420953776, -2.5, 184.068441109
415, -3.061467458921, -2.5, 184.6089637399
416, -6.34682672233, -2.5, 187.1299085679
417, -4.87009143207, -2.5, 185.6531732777
418, -7.93155889099, -2.5, 190.9557904622
419, -7.39103626009, -2.5, 188.9385325411
420, -7.408873150076, -2.499795465508, 195.018045501
421, -7.937549574002, -2.499795465508, 192.9976506203
422, -5.008779190018, -2.495707806013, 198.237958883
423, -6.452611739297, -2.495707806013, 196.7290381413
424, -3.669265570394, -2.30898181551, 199.1089021778
425, -2.586464490448, -0.8508646286017, 199.570350153
426, 0.914301775996, -0.2085494797587, 199.9475815354
427, -0.914301775996, -0.2085494797587, 199.9475815354
428, -1.704319104564, 1.024351517824, 199.8163480213
429, 1.704319104564, 1.024351517824, 199.8163480213
430, -5, 0, 114
431, 5, 0, 114
432, 0, -3, 114
433, 0, 3, 114
434, 0, 0, 48
435, -2.5, 1.5, 48
436, -2.5, -1.5, 48
437, 2.5, -1.5, 48
438, 2.5, 1.5, 48
439, 0, 0, 180
440, -2.5, -1.5, 180
441, -2.5, 1.5, 180
442, 2.5, -1.5, 180
443, 2.5, 1.5, 180
444, 7.246933262871, 0, 75.04592313609
445, -7.246933262871, 0, 75.04592313609
446, 14, 0, 72.24871130596
447, -14, 0, 72.24871130596
448, 19.79898987322, 0, 67.79898987322
449, 24.24871130596, 0, 62
450, 27.04592313609, 0, 55.24693326287
451, 28, 0, 48
452, 27.04592313609, 0, 40.75306673713
453, 19.79898987322, 0, 28.20101012678
454, 24.24871130596, 0, 34
455, 7.24693326287, 0, 20.95407686391
456, -1.706539592236e-13, 0, 20
457, 14, 0, 23.75128869404
458, -7.246933262871, 0, 20.95407686391
459, -14, 0, 23.75128869404
460, -19.79898987322, 0, 28.20101012678
461, -24.24871130596, 0, 34
462, -27.04592313609, 0, 40.75306673713
463, -27.04592313609, 0, 55.24693326287
464, -24.24871130596, 0, 62
465, -28, 0, 48
466, -19.79898987322, 0, 67.79898987322
467, -7.174332940777e-15, 5, 48
468, -3.751288694036, 5, 62
469, -14, 5, 51.75128869404
470, 3.751288694036, 5, 34
471, 14, 5, 44.24871130596
472, 10.24871130596, 5, 58.24871130596
473, -10.24871130596, 5, 37.75128869404
474, 5.124355652982, 5, 67.12435565298
475, -14, 5, 62
476, 19.12435565298, 5, 53.12435565298
477, 14, 5, 34
478, 9.562177826491, 5, 69.68653347947
479, 2.562177826491, 5, 71.56217782649
480, -1.875644347018, 5, 69
481, -8.875644347018, 5, 67.12435565298
482, 0.6865334794732, 5, 64.56217782649
483, 17.24871130596, 5, 60.12435565298
484, 12.12435565298, 5, 65.24871130596
485, 7.686533479473, 5, 62.68653347947
486, 23.56217782649, 5, 50.56217782649
487, 21.68653347947, 5, 57.56217782649
488, 14.68653347947, 5, 55.68653347947
489, 19.12435565298, 5, 39.12435565298
490, 21, 5, 46.12435565298
491, 16.56217782649, 5, 48.68653347947
492, 14, 5, 28.87564434702
493, 19.12435565298, 5, 34
494, 14, 5, 39.12435565298
495, 1.875644347018, 5, 27
496, 8.875644347018, 5, 28.87564434702
497, 8.875644347018, 5, 34
498, -12.12435565298, 5, 30.75128869404
499, -5.124355652982, 5, 28.87564434702
500, -3.248711305964, 5, 35.87564434702
501, -17.24871130596, 5, 35.87564434702
502, -21, 5, 49.87564434702
503, -19.12435565298, 5, 42.87564434702
504, -12.12435565298, 5, 44.75128869404
505, -19.12435565298, 5, 56.87564434702
506, -14, 5, 67.12435565298
507, -19.12435565298, 5, 62
508, -14, 5, 56.87564434702
509, -8.875644347018, 5, 62
510, -7, 5, 49.87564434702
511, -8.875644347018, 5, 56.87564434702
512, -1.875644347018, 5, 55
513, 3.248711305964, 5, 60.12435565298
514, 5.124355652982, 5, 53.12435565298
515, -5.124355652982, 5, 42.87564434702
516, 7, 5, 46.12435565298
517, 8.875644347018, 5, 39.12435565298
518, 1.875644347018, 5, 41
519, 12.12435565298, 5, 51.24871130596
520, -7.174332940777e-15, -5, 48
521, -3.751288694036, -5, 62
522, -14, -5, 51.75128869404
523, 3.751288694036, -5, 34
524, 14, -5, 44.24871130596
525, 10.24871130596, -5, 58.24871130596
526, -10.24871130596, -5, 37.75128869404
527, 5.124355652982, -5, 67.12435565298
528, -14, -5, 62
529, 19.12435565298, -5, 53.12435565298
530, 14, -5, 34
531, 2.562177826491, -5, 71.56217782649
532, 9.562177826491, -5, 69.68653347947
533, -8.875644347018, -5, 67.12435565298
534, -1.875644347018, -5, 69
535, 0.6865334794732, -5, 64.56217782649
536, 12.12435565298, -5, 65.24871130596
537, 17.24871130596, -5, 60.12435565298
538, 7.686533479473, -5, 62.68653347947
539, 21.68653347947, -5, 57.56217782649
540, 23.56217782649, -5, 50.56217782649
541, 14.68653347947, -5, 55.68653347947
542, 21, -5, 46.12435565298
543, 19.12435565298, -5, 39.12435565298
544, 16.56217782649, -5, 48.68653347947
545, 19.12435565298, -5, 34
546, 14, -5, 28.87564434702
547, 14, -5, 39.12435565298
548, 8.875644347018, -5, 28.87564434702
549, 1.875644347018, -5, 27
550, 8.875644347018, -5, 34
551, -5.124355652982, -5, 28.87564434702
552, -12.12435565298, -5, 30.75128869404
553, -3.248711305964, -5, 35.87564434702
554, -17.24871130596, -5, 35.87564434702
555, -19.12435565298, -5, 42.87564434702
556, -21, -5, 49.87564434702
557, -12.12435565298, -5, 44.75128869404
558, -19.12435565298, -5, 56.87564434702
559, -19.12435565298, -5, 62
560, -14, -5, 67.12435565298
561, -14, -5, 56.87564434702
562, -8.875644347018, -5, 62
563, -1.875644347018, -5, 55
564, -8.875644347018, -5, 56.87564434702
565, -7, -5, 49.87564434702
566, 5.124355652982, -5, 53.12435565298
567, 3.248711305964, -5, 60.12435565298
568, -5.124355652982, -5, 42.87564434702
569, 1.875644347018, -5, 41
570, 8.875644347018, -5, 39.12435565298
571, 7, -5, 46.12435565298
572, 12.12435565298, -5, 51.24871130596
573, 15.28761091622, -7.216767801455e-17, 195.8350285147
574, 9.274950641241, 0, 202.7846252033
575, 1.879065298762, 1.7763568394e-15, 204.5912207106
576, 16.30405949595, -2.5, 198.9175142573
577, 17.64380545811, -2.5, 193.9175142573
578, 16.30405949595, 2.5, 198.9175142573
579, 17.64380545811, 2.5, 193.9175142573
580, 5.701942847077, 2.5, 183.4696300282
581, 7.495093791413, 2.5, 184.5049062086
582, 5.701942847077, -2.5, 183.4696300282
583, 7.495093791413, -2.5, 184.5049062086
584, 9.333333333333, 0, 182.6666666667
585, 0.5965608728647, 2.5, 181.8377929749
586, 2.667113233685, 2.5, 181.8377929749
587, 0.5965608728647, -2.5, 181.8377929749
588, 2.667113233685, -2.5, 181.8377929749
589, 3.26367410655, 0, 179.4029925601
590, -7.39089132769, -2.5, 184.5328271746
591, -9.124928405887, 0, 182.7225085987
592, -7.39089132769, 2.5, 184.5328271746
593, -5.597740383354, 2.5, 183.4975509942
594, -5.597740383354, -2.5, 183.4975509942
595, 10.1622070251, 2.5, 189.3328867663
596, 10.17409037491, 2.500204534492, 191.3580256038
597, 10.17409037491, -2.499795465508, 191.3580256038
598, 12.59700743988, 0, 188.7363258935
599, 10.1622070251, -2.5, 189.3328867663
600, -9.140737844336, 2.504292193987, 196.340541477
601, -10.06600999924, 2.500204534492, 194.6293590862
602, -10.06600999924, -2.499795465508, 194.6293590862
603, -12.38084668855, 0, 195.2789928582
604, -9.140737844336, -2.495707806013, 196.340541477
605, -6.308593102571, 2.69101818449, 200.1820091744
606, -3.401233424572, 2.69101818449, 201.9074948027
607, -3.472079033996, 0, 204.5411655079
608, -3.401233424572, -2.30898181551, 201.9074948027
609, -6.379438711995, 0, 202.8156798796
610, 6.298503719941, 0, 181.0348296134
611, -6.308593102571, -2.30898181551, 200.1820091744
612, -9.286798389993, 0, 201.0901942513
613, 12.47543789887, 0, 192.0232674717
614, 10.0525208339, -2.499795465508, 194.644967182
615, -6.217568727888, 0, 181.1843201204
616, -2.690380705355, 2.5, 181.9593625159
617, -2.690380705355, -2.5, 181.9593625159
618, -0.02326747167005, 0, 179.5245621011
619, -7.59371369506, 2.504292193987, 199.2461421735
620, -10.83382253927, 0, 198.1845935548
621, -7.59371369506, -2.495707806013, 199.2461421735
622, 10.0525208339, 2.500204534492, 194.644967182
623, 12.35386835786, 0, 195.3102090499
624, -3.31020904989, 0, 179.6461316421
625, 0.9395326493808, 0.8333333333333, 202.2956103553
626, 0.9395326493808, -0.8333333333333, 202.2956103553
627, 0.03122166029049, -1.041882813092, 202.1911168881
628, -2.771315697408, 4.166666666667, 202.1342860591
629, -1.736039516998, 3.333333333333, 202.2705827539
630, -0.7256612581935, 0.1910181844904, 201.932522404
631, -12.74957043532, 0, 188.583762898
632, -16.37478521766, 0, 190.291881449
633, -12.56520856193, 0, 191.9313778781
634, -1.736039516998, 0, 208.2705827539
635, -0.7965068676172, 2.5, 204.5661931092
636, -0.7965068676172, -2.5, 204.5661931092
637, 0.9395326493808, 2.5, 208.2956103553
638, 9.126930844688, 2.5, 187.539735822
639, 9.126930844688, -2.5, 187.539735822
640, -8.4261675081, -2.5, 186.3259781189
641, -8.4261675081, 2.5, 186.3259781189
642, -9.643399194997, 0, 205.2053511635
643, -14.85067738212, 0, 198.6394964291
644, -2.644350506088, -3.541882813092, 202.1660892867
645, -10.05412664943, 2.5, 192.6042202487
646, -10.05412664943, -2.5, 192.6042202487
647, 2.743394731404, 4.166666666667, 202.2384885228
648, 3.373312458568, 2.69101818449, 202.0116972664
649, 9.127248678994, 2.504292193987, 196.3561495728
650, 7.587789820683, 0.004292193987383, 200.0933576496
651, 10.81440949955, 2.5, 199.0474171266
652, 8.513061975587, 0.0002045344923003, 198.3821752587
653, 9.127248678994, -2.495707806013, 196.3561495728
654, 10.81440949955, -2.5, 199.0474171266
655, -15.03503925551, 0, 185.291881449
656, -6.736039516998, 0, 206.9308367918
657, -13.30365323284, 0, 201.5450971257
658, -16.19042334427, 0, 193.6394964291
659, 5.545786309711, -1.041882813092, 201.2878191345
660, 6.302669228195, 0.1910181844904, 201.0292246504
661, 6.63747532062, -2.5, 200.8564142168
662, 10.96517038661, 0, 185.7014962801
663, 13.32692070451, 0, 182.3333333333
664, 9.666666666667, 0, 178.6730792955
665, -10.9372494206, 0, 185.6531357483
666, -10.23848852282, -2.5, 189.2566052686
667, -10.23848852282, 2.5, 189.2566052686
668, 6.631837053275, 0, 177.0412422422
669, -13.22271824079, 0, 182.3612542993
670, 14.95875775779, 0, 185.3681629467
671, 1.631837053275, 0, 175.7014962801
672, -9.562464202944, 0, 178.7010002615
673, -6.655104524945, 0, 177.1628117832
674, -1.655104524945, 0, 175.8230658211
675, 13.82073963704, -2.5, 195.5726187823
676, 13.82073963704, 2.5, 195.5726187823
677, 12.28128077873, -3.608383900728e-17, 199.309826859
678, 7.589060200726, -2.495707806013, 199.2635092508
679, 0.9395326493808, -2.5, 208.2956103553
680, 7.589060200726, 2.504292193987, 199.2635092508
681, 16.29850371994, 0, 190.3681629467
682, 2.616429540084, -3.541882813092, 202.2702917505
683, 6.345593871614, -2.5, 203.7670978193
684, 9.276221021283, -2.5, 201.9547768046
685, 9.276221021283, 2.5, 201.9547768046
686, 6.303939608237, 2.69101818449, 200.1993762517
687, 13.29772935846, 2.5, 202.3923126017
688, 9.63747532062, -2.5, 206.0525666395
689, 13.29772935846, -2.5, 202.3923126017
690, 1.974808829791, 1.666666666667, 202.1593136604
691, 2.647651200375, 2.5, 204.6703955729
692, 2.604726556955, 0.1910181844904, 201.932522404
693, 5.939532649381, 2.5, 206.9558643931
694, 0.9395326493808, 2.5, 202.2956103553
695, 1.847843638471, -1.041882813092, 202.1911168881
696, 9.63747532062, 2.5, 206.0525666395
697, 5.939532649381, -2.5, 206.9558643931
698, 6.345593871614, 2.5, 203.7670978193
699, 5.577007970001, 8.881784197001e-16, 203.687922957
700, 2.647651200375, -2.5, 204.6703955729
701, 0.9395326493808, -2.5, 202.2956103553
702, 13.94230917805, -2.5, 192.2856772041
703, 13.94230917805, 2.5, 192.2856772041
704, -2.5, -1.5, 114
705, -2.5, 1.5, 114
706, 0, 0, 114
707, 2.5, 1.5, 114
708, 2.5, -1.5, 114
709, 8.975377643885, -0.8976663497507, 65.49317875684
710, 5.93537837674, -0.01296017741486, 25.92144332982
711, -6.011920087684, -0.5, 28.36320878172
712, -3.005960043842, -2.75, 24.18160439086
713, -1.130315696824, -2.75, 31.18160439086
714, -8.130315696824, -2.75, 33.05724873788
715, -10.00596004384, -2.75, 26.05724873788
716, 8.875644347018, 0, 28.87564434702
717, 3.751288694036, 0, 34
718, 4.843333535388, 2.493519911293, 29.96072166491
719, 4.843333535388, -2.506480088707, 29.96072166491
720, 9.96768918837, -2.506480088707, 24.83636601193
721, 9.96768918837, 2.493519911293, 24.83636601193
722, 5.124355652982, 0, 67.12435565298
723, 9.562177826491, 0, 69.68653347947
724, 11.48768882194, -2.948833174875, 68.8709450314
725, 7.049866648434, 2.051166825125, 66.30876720491
726, 7.049866648434, -2.948833174875, 66.30876720491
727, 1.875644347018, 0, 27
728, 2.96768918837, 2.493519911293, 22.96072166491
729, -12.12435565298, 0, 30.75128869404
730, -8.130315696824, 2.25, 33.05724873788
731, -10.00596004384, 2.25, 26.05724873788
732, 2.96768918837, -2.506480088707, 22.96072166491
733, 14, 0, 28.87564434702
734, 8.875644347018, 0, 34
735, 14, 0, 34
736, 19.12435565298, 0, 53.12435565298
737, 14.68653347947, 0, 55.68653347947
738, 16.56217782649, 0, 48.68653347947
739, 14, 0, 39.12435565298
740, -8.875644347018, 0, 62
741, -14, 0, 67.12435565298
742, -14, 0, 62
743, 23.56217782649, 0, 50.56217782649
744, -10.24871130596, 0, 37.75128869404
745, 7, 0, 46.12435565298
746, 1.875644347018, 0, 41
747, 5.124355652982, 0, 53.12435565298
748, 8.875644347018, 0, 39.12435565298
749, 12.12435565298, 0, 51.24871130596
750, 10.24871130596, 0, 58.24871130596
751, -1.875644347018, 0, 55
752, 14, 0, 44.24871130596
753, 3.248711305964, 0, 60.12435565298
754, -3.751288694036, 0, 62
755, 2.562177826491, 0, 71.56217782649
756, 21.68653347947, 0, 57.56217782649
757, 19.12435565298, 0, 34
758, -19.12435565298, 0, 62
759, 0.6865334794732, 0, 64.56217782649
760, -1.875644347018, 0, 69
761, 11.48768882194, 2.051166825125, 68.8709450314
762, -8.875644347018, 0, 67.12435565298
763, 21, 0, 46.12435565298
764, -3.248711305964, 0, 35.87564434702
765, 19.12435565298, 0, 39.12435565298
766, 9.612044474925, -2.948833174875, 61.8709450314
767, -14, 0, 56.87564434702
768, -21, 0, 49.87564434702
769, 17.24871130596, 0, 60.12435565298
770, -8.875644347018, 0, 56.87564434702
771, -7, 0, 49.87564434702
772, -5.124355652982, 0, 42.87564434702
773, -19.12435565298, 0, 42.87564434702
774, -14, 0, 51.75128869404
775, -19.12435565298, 0, 56.87564434702
776, -12.12435565298, 0, 44.75128869404
777, -17.24871130596, 0, 35.87564434702
778, 9.612044474925, 2.051166825125, 61.8709450314
779, 16.61204447492, -2.948833174875, 63.74658937842
780, 2.612044474925, 2.051166825125, 63.74658937842
781, 2.612044474925, -2.948833174875, 63.74658937842
782, -3.005960043842, 2.25, 24.18160439086


** Volume elements
*Element, TYPE=C3D10, ELSET=Evolumes
388, 41, 40, 16, 573, 52, 179, 177, 577, 576, 578
389, 41, 16, 17, 573, 177, 28, 178, 577, 578, 579
390, 353, 352, 196, 268, 383, 580, 581, 583, 582, 584
391, 352, 351, 202, 274, 386, 585, 586, 588, 587, 589
392, 201, 344, 273, 351, 592, 590, 591, 593, 389, 594
393, 203, 342, 354, 275, 596, 377, 595, 598, 597, 599
394, 200, 339, 340, 272, 601, 398, 600, 603, 602, 604
395, 346, 197, 198, 269, 606, 246, 605, 608, 607, 609
396, 274, 196, 352, 268, 610, 580, 588, 302, 584, 582
397, 198, 270, 346, 269, 612, 611, 605, 609, 318, 608
398, 196, 352, 202, 274, 580, 586, 230, 610, 588, 589
399, 342, 203, 278, 275, 596, 613, 614, 597, 598, 296
400, 204, 201, 273, 351, 236, 591, 615, 616, 593, 594
401, 276, 202, 351, 274, 618, 585, 617, 305, 589, 587
402, 272, 340, 198, 270, 604, 619, 620, 317, 621, 612
403, 278, 342, 206, 203, 614, 622, 623, 613, 596, 224
404, 276, 204, 273, 351, 624, 615, 308, 617, 616, 594
405, 351, 276, 204, 202, 617, 624, 616, 585, 618, 233
406, 200, 340, 198, 272, 600, 619, 245, 603, 604, 620
407, 198, 340, 346, 270, 619, 399, 605, 612, 621, 611
408, 108, 109, 350, 575, 111, 427, 366, 626, 625, 627
409, 345, 346, 109, 197, 401, 428, 359, 628, 606, 629
410, 109, 346, 350, 575, 428, 425, 427, 625, 630, 627
411, 199, 47, 271, 272, 632, 310, 631, 633, 312, 314
412, 269, 197, 1, 575, 607, 209, 634, 636, 635, 637
413, 353, 65, 354, 203, 378, 376, 380, 638, 252, 595
414, 354, 88, 353, 275, 408, 411, 380, 599, 323, 639
415, 344, 273, 92, 343, 590, 331, 416, 392, 640, 419
416, 343, 69, 344, 201, 390, 388, 392, 641, 260, 592
417, 269, 198, 270, 49, 609, 612, 318, 281, 642, 316
418, 198, 24, 200, 272, 244, 240, 245, 620, 643, 603
419, 269, 350, 346, 575, 644, 425, 608, 636, 627, 630
420, 346, 95, 350, 269, 424, 364, 425, 608, 287, 644
421, 342, 87, 354, 275, 406, 409, 377, 597, 324, 599
422, 64, 342, 354, 203, 373, 377, 375, 251, 596, 595
423, 343, 339, 70, 200, 395, 393, 391, 645, 601, 263
424, 272, 343, 339, 93, 646, 395, 602, 336, 418, 421
425, 195, 348, 62, 347, 647, 356, 213, 648, 371, 370
426, 206, 341, 342, 574, 649, 374, 622, 651, 650, 652
427, 342, 341, 278, 574, 374, 653, 614, 652, 650, 654
428, 72, 346, 345, 197, 400, 401, 358, 214, 606, 628
429, 278, 206, 342, 574, 623, 622, 614, 654, 651, 652
430, 272, 339, 340, 94, 602, 398, 604, 335, 420, 423
431, 199, 46, 271, 47, 655, 309, 631, 632, 58, 310
432, 340, 71, 339, 200, 396, 394, 398, 600, 264, 601
433, 341, 278, 86, 342, 653, 322, 402, 374, 614, 407
434, 206, 341, 63, 342, 649, 368, 249, 622, 374, 372
435, 25, 1, 269, 197, 37, 634, 656, 210, 209, 607
436, 48, 270, 198, 49, 315, 612, 657, 60, 316, 642
437, 24, 23, 200, 272, 35, 241, 240, 643, 658, 603
438, 347, 349, 85, 574, 405, 362, 404, 660, 659, 661
439, 196, 275, 268, 42, 662, 299, 584, 663, 295, 297
440, 43, 196, 274, 268, 664, 610, 300, 298, 584, 302
441, 46, 273, 199, 271, 307, 665, 655, 309, 311, 631
442, 197, 346, 109, 575, 606, 428, 629, 635, 630, 625
443, 65, 353, 196, 203, 378, 581, 253, 252, 638, 227
444, 268, 353, 88, 275, 583, 411, 326, 299, 639, 323
445, 271, 92, 273, 343, 334, 331, 311, 666, 419, 640
446, 69, 343, 199, 201, 390, 667, 261, 260, 641, 239
447, 196, 202, 43, 274, 230, 668, 664, 610, 589, 300
448, 46, 199, 273, 201, 655, 665, 307, 669, 239, 591
449, 275, 196, 203, 42, 662, 227, 598, 295, 663, 670
450, 198, 197, 25, 269, 246, 210, 243, 609, 607, 656
451, 199, 23, 272, 200, 237, 658, 633, 242, 241, 603
452, 202, 276, 44, 274, 618, 303, 671, 589, 305, 301
453, 273, 204, 21, 201, 615, 231, 672, 591, 236, 235
454, 48, 272, 198, 270, 313, 620, 657, 315, 317, 612
455, 273, 276, 21, 204, 308, 673, 672, 615, 624, 231
456, 204, 276, 44, 202, 624, 303, 674, 233, 618, 671
457, 343, 70, 199, 200, 391, 262, 667, 645, 263, 242
458, 343, 272, 271, 93, 646, 314, 666, 418, 336, 333
459, 95, 346, 340, 270, 424, 399, 422, 337, 611, 621
460, 346, 197, 269, 575, 606, 607, 608, 630, 635, 636
461, 206, 278, 573, 574, 623, 675, 676, 651, 654, 677
462, 87, 342, 278, 275, 406, 614, 321, 324, 597, 296
463, 342, 64, 206, 203, 373, 250, 622, 596, 251, 224
464, 18, 203, 196, 42, 222, 227, 226, 181, 670, 663
465, 199, 46, 22, 201, 655, 188, 238, 239, 669, 234
466, 3, 345, 109, 197, 357, 359, 112, 215, 628, 629
467, 199, 272, 23, 47, 633, 658, 237, 632, 312, 193
468, 272, 94, 340, 270, 335, 423, 604, 317, 338, 621
469, 71, 340, 198, 200, 396, 619, 265, 264, 600, 245
470, 198, 269, 25, 49, 609, 656, 243, 642, 281, 175
471, 277, 278, 86, 341, 293, 322, 319, 678, 653, 402
472, 2, 269, 1, 575, 282, 634, 38, 679, 636, 637
473, 206, 205, 63, 341, 221, 248, 249, 649, 680, 368
474, 346, 270, 95, 269, 611, 337, 424, 608, 318, 287
475, 21, 276, 273, 45, 673, 308, 672, 189, 304, 306
476, 198, 48, 24, 272, 657, 192, 244, 620, 313, 643
477, 42, 196, 43, 268, 663, 664, 54, 297, 584, 298
478, 43, 202, 44, 274, 668, 671, 55, 300, 589, 301
479, 17, 275, 203, 42, 681, 598, 223, 180, 295, 670
480, 46, 273, 21, 201, 307, 672, 187, 669, 591, 235
481, 44, 21, 276, 204, 185, 673, 303, 674, 231, 624
482, 85, 349, 267, 574, 362, 682, 284, 661, 659, 683
483, 277, 278, 341, 574, 293, 653, 678, 684, 654, 650
484, 206, 205, 341, 574, 221, 680, 649, 651, 685, 650
485, 341, 347, 85, 574, 369, 404, 403, 650, 660, 661
486, 195, 62, 205, 347, 213, 247, 218, 648, 370, 686
487, 72, 340, 346, 198, 397, 399, 400, 266, 619, 605
488, 39, 16, 40, 574, 176, 179, 51, 688, 687, 689
489, 205, 347, 62, 341, 686, 370, 247, 680, 369, 367
490, 72, 198, 346, 197, 266, 605, 400, 214, 246, 606
491, 21, 44, 276, 45, 185, 303, 673, 189, 56, 304
492, 22, 23, 46, 199, 34, 190, 188, 238, 237, 655
493, 46, 199, 23, 47, 655, 237, 190, 58, 632, 193
494, 196, 19, 18, 42, 225, 30, 226, 663, 182, 181
495, 272, 23, 48, 24, 658, 191, 313, 643, 35, 192
496, 272, 48, 23, 47, 313, 191, 658, 312, 59, 193
497, 195, 348, 347, 575, 647, 371, 648, 691, 690, 692
498, 21, 273, 46, 45, 672, 307, 187, 189, 306, 57
499, 2, 25, 269, 49, 173, 656, 282, 61, 175, 281
500, 21, 22, 46, 201, 33, 188, 187, 235, 234, 669
501, 203, 18, 17, 42, 222, 29, 223, 670, 181, 180
502, 25, 269, 1, 2, 656, 634, 37, 173, 282, 38
503, 48, 198, 25, 49, 657, 243, 194, 60, 642, 175
504, 198, 25, 24, 48, 243, 36, 244, 657, 194, 192
505, 15, 2, 1, 575, 172, 38, 26, 693, 679, 637
506, 277, 40, 278, 574, 289, 291, 293, 684, 689, 654
507, 15, 1, 195, 575, 26, 208, 207, 693, 637, 691
508, 3, 197, 109, 575, 215, 629, 112, 694, 635, 625
509, 278, 40, 573, 574, 291, 576, 675, 654, 689, 677
510, 196, 43, 202, 19, 664, 668, 230, 225, 183, 229
511, 20, 204, 44, 202, 232, 674, 186, 228, 233, 671
512, 353, 196, 66, 65, 581, 254, 379, 378, 253, 77
513, 343, 69, 199, 70, 390, 261, 667, 391, 81, 262
514, 343, 271, 92, 93, 666, 334, 419, 418, 333, 104
515, 353, 88, 89, 268, 411, 100, 410, 583, 326, 325
516, 108, 349, 109, 575, 365, 426, 111, 626, 695, 625
517, 94, 95, 340, 270, 106, 422, 423, 338, 337, 621
518, 89, 352, 274, 90, 413, 588, 328, 101, 412, 327
519, 67, 202, 66, 352, 256, 255, 78, 382, 586, 381
520, 64, 354, 65, 203, 375, 376, 76, 251, 595, 252
521, 91, 273, 92, 344, 332, 331, 103, 417, 590, 416
522, 344, 201, 69, 68, 592, 260, 388, 387, 259, 80
523, 354, 87, 88, 275, 409, 99, 408, 599, 324, 323
524, 347, 348, 109, 575, 371, 360, 429, 692, 690, 625
525, 16, 39, 15, 574, 176, 174, 27, 687, 688, 696
526, 340, 198, 72, 71, 619, 266, 397, 396, 265, 83
527, 277, 86, 85, 341, 319, 97, 320, 678, 402, 403
528, 62, 63, 205, 341, 74, 248, 247, 367, 368, 680
529, 85, 277, 341, 574, 320, 678, 403, 661, 684, 650
530, 351, 91, 276, 90, 415, 329, 617, 414, 102, 330
531, 68, 204, 67, 351, 258, 257, 79, 384, 616, 385
532, 21, 44, 20, 204, 185, 186, 32, 231, 674, 232
533, 42, 43, 196, 19, 54, 664, 663, 182, 183, 225
534, 86, 342, 278, 87, 407, 614, 322, 98, 406, 321
535, 206, 342, 63, 64, 622, 372, 249, 250, 373, 75
536, 17, 41, 275, 42, 178, 294, 681, 180, 53, 295
537, 202, 20, 19, 43, 228, 31, 229, 668, 184, 183
538, 43, 44, 202, 20, 55, 671, 668, 184, 186, 228
539, 39, 2, 15, 575, 50, 172, 174, 697, 679, 693
540, 3, 62, 195, 348, 73, 213, 212, 355, 356, 647
541, 339, 94, 272, 93, 420, 335, 602, 421, 105, 336
542, 71, 70, 339, 200, 82, 393, 394, 264, 263, 601
543, 205, 195, 347, 574, 218, 648, 686, 685, 698, 660
544, 1, 197, 195, 575, 209, 211, 208, 637, 635, 691
545, 195, 347, 574, 575, 648, 660, 698, 691, 692, 699
546, 267, 2, 39, 575, 279, 50, 280, 700, 679, 697
547, 15, 195, 574, 575, 207, 698, 696, 693, 691, 699
548, 267, 39, 574, 575, 280, 688, 683, 700, 697, 699
549, 205, 347, 341, 574, 686, 369, 680, 685, 660, 650
550, 85, 267, 277, 574, 284, 290, 320, 661, 683, 684
551, 205, 206, 16, 574, 221, 220, 216, 685, 651, 687
552, 3, 72, 345, 197, 84, 358, 357, 215, 214, 628
553, 16, 206, 573, 574, 220, 676, 578, 687, 651, 677
554, 573, 40, 16, 574, 576, 179, 578, 677, 689, 687
555, 109, 349, 347, 575, 426, 405, 429, 625, 695, 692
556, 267, 85, 4, 349, 284, 96, 285, 682, 362, 361
557, 195, 197, 3, 575, 211, 215, 212, 691, 635, 694
558, 4, 269, 267, 575, 286, 283, 285, 701, 636, 700
559, 574, 39, 15, 575, 688, 174, 696, 699, 697, 693
560, 278, 40, 41, 573, 291, 52, 292, 675, 576, 577
561, 39, 40, 277, 574, 51, 289, 288, 688, 689, 684
562, 350, 95, 4, 269, 364, 107, 363, 644, 287, 286
563, 267, 269, 2, 575, 283, 282, 279, 700, 636, 679
564, 17, 16, 206, 573, 28, 220, 219, 579, 578, 676
565, 205, 16, 15, 574, 216, 27, 217, 685, 687, 696
566, 15, 195, 205, 574, 207, 218, 217, 696, 698, 685
567, 267, 39, 277, 574, 280, 288, 290, 683, 688, 684
568, 275, 573, 41, 17, 702, 577, 294, 681, 579, 178
569, 41, 573, 275, 278, 577, 702, 294, 292, 675, 296
570, 275, 203, 573, 17, 598, 703, 702, 681, 223, 579
571, 573, 203, 275, 278, 703, 598, 702, 675, 613, 296
572, 203, 206, 573, 17, 224, 676, 703, 223, 219, 579
573, 573, 206, 203, 278, 676, 224, 703, 675, 623, 613
574, 343, 272, 199, 271, 646, 633, 667, 666, 314, 631
575, 272, 343, 200, 339, 646, 645, 603, 602, 395, 601
576, 343, 272, 200, 199, 646, 603, 645, 667, 633, 242
577, 273, 343, 199, 271, 640, 667, 665, 311, 666, 631
578, 273, 343, 201, 199, 640, 641, 591, 665, 667, 239
579, 343, 273, 201, 344, 640, 591, 641, 392, 590, 592
580, 196, 275, 353, 268, 662, 639, 581, 584, 299, 583
581, 275, 353, 203, 196, 639, 638, 598, 662, 581, 227
582, 353, 275, 203, 354, 639, 598, 638, 380, 599, 595
583, 89, 352, 268, 274, 413, 582, 325, 328, 588, 302
584, 352, 89, 268, 353, 413, 325, 582, 383, 410, 583
585, 66, 196, 352, 202, 254, 580, 381, 255, 230, 586
586, 196, 66, 352, 353, 254, 381, 580, 581, 379, 383
587, 90, 274, 351, 352, 327, 587, 414, 412, 588, 386
588, 351, 274, 90, 276, 587, 327, 414, 617, 305, 330
589, 67, 202, 351, 204, 256, 585, 385, 257, 233, 616
590, 202, 67, 351, 352, 256, 385, 585, 586, 382, 386
591, 68, 351, 201, 204, 384, 593, 259, 258, 616, 236
592, 201, 351, 68, 344, 593, 384, 259, 592, 389, 387
593, 91, 351, 273, 344, 415, 594, 332, 417, 389, 590
594, 273, 351, 91, 276, 594, 415, 332, 308, 617, 329
595, 4, 575, 350, 269, 701, 627, 363, 286, 636, 644
596, 350, 575, 4, 108, 627, 701, 363, 366, 626, 110
597, 575, 574, 349, 347, 699, 659, 695, 692, 660, 405
598, 349, 574, 575, 267, 659, 699, 695, 682, 683, 700
599, 349, 575, 4, 267, 695, 701, 361, 682, 700, 285
600, 4, 575, 349, 108, 701, 695, 361, 110, 626, 365
601, 348, 575, 3, 109, 690, 694, 355, 360, 625, 112
602, 3, 575, 348, 195, 694, 690, 355, 212, 691, 647
603, 434, 7, 5, 439, 705, 114, 704, 706, 441, 440
604, 6, 434, 5, 10, 436, 704, 113, 121, 437, 432
605, 12, 7, 8, 434, 433, 115, 123, 438, 705, 435
606, 6, 8, 5, 434, 116, 430, 113, 436, 435, 704
607, 434, 8, 5, 7, 435, 430, 704, 705, 115, 114
608, 439, 9, 12, 11, 442, 431, 707, 443, 118, 119
609, 439, 7, 12, 434, 441, 433, 707, 706, 705, 438
610, 12, 7, 439, 11, 433, 441, 707, 119, 124, 443
611, 10, 12, 439, 9, 120, 707, 708, 117, 431, 442
612, 439, 12, 10, 434, 707, 120, 708, 706, 438, 437
613, 439, 5, 10, 9, 440, 432, 708, 442, 122, 117
614, 10, 5, 439, 434, 432, 440, 708, 437, 704, 706
615, 523, 154, 526, 711, 549, 551, 553, 713, 712, 714
616, 154, 155, 526, 711, 166, 552, 551, 712, 715, 714
617, 523, 470, 153, 710, 717, 716, 548, 719, 718, 720
618, 153, 470, 129, 710, 716, 496, 457, 720, 718, 721
619, 474, 149, 527, 709, 723, 532, 722, 725, 724, 726
620, 523, 130, 470, 710, 727, 495, 717, 719, 728, 718
621, 473, 155, 131, 711, 729, 459, 498, 730, 715, 731
622, 153, 129, 154, 710, 457, 455, 165, 720, 721, 732
623, 477, 523, 153, 530, 734, 548, 733, 735, 550, 546
624, 529, 472, 476, 471, 737, 488, 736, 738, 519, 491
625, 524, 523, 477, 530, 570, 734, 739, 547, 550, 735
626, 159, 475, 521, 528, 741, 740, 533, 560, 742, 562
627, 127, 471, 529, 476, 490, 738, 743, 486, 491, 736
628, 473, 526, 155, 711, 744, 552, 729, 730, 714, 715
629, 130, 523, 154, 710, 727, 549, 456, 728, 719, 732
630, 471, 467, 470, 520, 516, 518, 517, 745, 434, 746
631, 471, 472, 467, 520, 519, 514, 516, 745, 747, 434
632, 470, 520, 523, 524, 746, 569, 717, 748, 571, 570
633, 472, 471, 525, 520, 519, 749, 750, 747, 745, 566
634, 468, 467, 472, 520, 512, 514, 513, 751, 434, 747
635, 525, 520, 471, 524, 566, 745, 749, 572, 571, 752
636, 468, 472, 521, 520, 513, 753, 754, 751, 747, 563
637, 471, 520, 470, 524, 745, 746, 517, 752, 571, 748
638, 521, 472, 525, 520, 753, 750, 567, 563, 747, 566
639, 14, 149, 527, 474, 160, 532, 531, 755, 723, 722
640, 126, 529, 476, 127, 756, 736, 487, 138, 743, 486
641, 524, 477, 152, 530, 739, 757, 543, 547, 735, 545
642, 477, 530, 153, 152, 735, 546, 733, 757, 545, 164
643, 475, 159, 158, 528, 741, 170, 758, 742, 560, 559
644, 14, 527, 468, 474, 531, 759, 760, 755, 722, 482
645, 529, 126, 476, 472, 756, 487, 736, 737, 483, 488
646, 129, 130, 154, 710, 141, 456, 455, 721, 728, 732
647, 474, 125, 149, 709, 478, 446, 723, 725, 761, 724
648, 525, 472, 529, 471, 750, 737, 541, 749, 519, 738
649, 153, 477, 470, 523, 733, 497, 716, 548, 734, 717
650, 159, 521, 475, 468, 533, 740, 741, 762, 754, 509
651, 525, 471, 529, 524, 749, 738, 541, 572, 752, 544
652, 524, 477, 523, 470, 739, 734, 570, 748, 497, 717
653, 477, 470, 524, 471, 497, 748, 739, 494, 517, 752
654, 127, 529, 471, 524, 743, 738, 490, 763, 544, 752
655, 473, 130, 470, 523, 499, 495, 500, 764, 727, 717
656, 153, 154, 523, 710, 165, 549, 548, 720, 732, 719
657, 14, 468, 521, 159, 760, 754, 534, 171, 762, 533
658, 127, 471, 128, 524, 490, 489, 139, 763, 752, 765
659, 527, 149, 525, 709, 532, 536, 538, 726, 724, 766
660, 521, 475, 522, 528, 740, 767, 564, 562, 742, 561
661, 522, 133, 156, 157, 768, 462, 555, 556, 465, 168
662, 159, 468, 475, 135, 762, 509, 741, 447, 481, 506
663, 470, 129, 477, 153, 496, 492, 497, 716, 457, 733
664, 477, 128, 471, 524, 493, 489, 494, 739, 765, 752
665, 14, 468, 13, 474, 760, 480, 148, 755, 482, 479
666, 468, 14, 521, 527, 760, 534, 754, 759, 531, 535
667, 529, 525, 150, 472, 541, 537, 539, 737, 750, 769
668, 529, 524, 127, 151, 544, 763, 743, 540, 542, 451
669, 468, 521, 469, 520, 754, 770, 511, 751, 563, 771
670, 473, 523, 470, 520, 764, 717, 500, 772, 569, 746
671, 469, 467, 468, 520, 510, 512, 511, 771, 434, 751
672, 473, 470, 467, 520, 500, 518, 515, 772, 746, 434
673, 130, 129, 470, 710, 141, 496, 495, 728, 721, 718
674, 524, 151, 128, 127, 542, 452, 765, 763, 451, 139
675, 468, 14, 135, 159, 760, 445, 481, 762, 171, 447
676, 468, 13, 135, 14, 480, 147, 481, 760, 148, 445
677, 522, 475, 158, 528, 767, 758, 558, 561, 742, 559
678, 469, 468, 475, 521, 511, 509, 508, 770, 754, 740
679, 474, 14, 125, 13, 755, 444, 478, 479, 148, 136
680, 149, 14, 125, 474, 160, 444, 446, 723, 755, 478
681, 529, 127, 126, 151, 743, 138, 756, 540, 451, 450
682, 475, 135, 158, 159, 506, 466, 758, 741, 447, 170
683, 477, 153, 129, 152, 733, 457, 492, 757, 164, 453
684, 524, 152, 477, 128, 543, 757, 739, 765, 454, 493
685, 475, 158, 135, 134, 758, 466, 506, 507, 464, 146
686, 150, 126, 529, 472, 449, 756, 539, 769, 483, 737
687, 152, 151, 128, 524, 163, 452, 454, 543, 542, 765
688, 125, 126, 150, 472, 137, 449, 448, 484, 483, 769
689, 133, 132, 469, 522, 144, 503, 502, 768, 773, 774
690, 522, 156, 133, 132, 555, 462, 768, 773, 461, 144
691, 134, 475, 158, 522, 507, 758, 464, 775, 767, 558
692, 126, 150, 529, 151, 449, 539, 756, 450, 162, 540
693, 477, 129, 128, 152, 492, 140, 493, 757, 453, 454
694, 469, 521, 522, 520, 770, 564, 774, 771, 563, 565
695, 523, 473, 526, 520, 764, 744, 553, 569, 772, 568
696, 467, 469, 473, 520, 510, 504, 515, 434, 771, 772
697, 522, 132, 469, 473, 773, 503, 774, 776, 501, 504
698, 132, 156, 526, 522, 461, 554, 777, 773, 555, 557
699, 526, 473, 132, 522, 744, 501, 777, 557, 776, 773
700, 522, 158, 133, 157, 558, 463, 768, 556, 169, 465
701, 522, 133, 158, 134, 768, 463, 558, 775, 145, 464
702, 472, 125, 474, 709, 484, 478, 485, 778, 761, 725
703, 475, 134, 469, 522, 507, 505, 508, 767, 775, 774
704, 521, 522, 475, 469, 564, 767, 740, 770, 774, 508
705, 134, 133, 469, 522, 145, 502, 505, 775, 768, 774
706, 523, 526, 473, 711, 553, 744, 764, 713, 714, 730
707, 522, 473, 469, 520, 776, 504, 774, 565, 772, 771
708, 473, 522, 526, 520, 776, 557, 744, 772, 565, 568
709, 132, 155, 131, 473, 460, 459, 143, 501, 729, 498
710, 154, 131, 155, 711, 458, 459, 166, 712, 731, 715
711, 155, 156, 526, 132, 167, 554, 552, 460, 461, 777
712, 155, 132, 526, 473, 460, 777, 552, 729, 501, 744
713, 150, 149, 709, 525, 161, 724, 779, 537, 536, 766
714, 709, 149, 150, 125, 724, 161, 779, 761, 446, 448
715, 709, 472, 150, 525, 778, 769, 779, 766, 750, 537
716, 150, 472, 709, 125, 769, 778, 779, 448, 484, 761
717, 468, 709, 474, 527, 780, 725, 482, 759, 726, 722
718, 474, 709, 468, 472, 725, 780, 482, 485, 778, 513
719, 468, 521, 709, 527, 754, 781, 780, 759, 535, 726
720, 709, 521, 468, 472, 781, 754, 780, 778, 753, 513
721, 521, 525, 709, 527, 567, 766, 781, 535, 538, 726
722, 709, 525, 521, 472, 766, 567, 781, 778, 750, 753
723, 130, 711, 473, 131, 782, 730, 499, 142, 731, 498
724, 711, 130, 473, 523, 782, 499, 730, 713, 727, 764
725, 711, 130, 154, 131, 782, 456, 712, 731, 142, 458
726, 130, 711, 154, 523, 782, 712, 456, 727, 713, 549

** Define element set Eall
*ELSET, ELSET=Eall
Evolumes



***********************************************************
** Element sets for materials and FEM element type (solid, shell, beam, fluid)
*ELSET,ELSET=FEMPart002_MaterialSolid
Evolumes

** Physical constants for SI(mm) unit system with Kelvins
*PHYSICAL CONSTANTS, ABSOLUTE ZERO=0, STEFAN BOLTZMANN=5.670374419e-11

***********************************************************
** Materials
** see information about units at file end
** FreeCAD material name: CalculiX-Steel
** Material (FEMPart (LongPendulum001))
*MATERIAL, NAME=FEMPart002_Material
*ELASTIC
210000,0.3
*DENSITY
7.9E-09
*EXPANSION, ZERO=0
1.2E-05

***********************************************************
** Sections
*SOLID SECTION, ELSET=FEMPart002_MaterialSolid, MATERIAL=FEMPart002_Material

***********************************************************
** At least one step is needed to run an CalculiX analysis of FreeCAD
*STEP, INC=2000
*STATIC
1.0,1.0,1e-05,1.0

***********************************************************
** Automatic 3-2-1 constraints
** nodeXYZ 167: x=-19.7989898732, y=-5, z=28.2010101268
** nodeYZ 164: x=19.7989898732, y=-5, z=28.2010101268
** nodeZ 140: x=19.7989898732, y=5, z=28.2010101268
*BOUNDARY
167,1,1,0
167,2,2,0
167,3,3,0
164,2,2,0
164,3,3,0
140,3,3,0

***********************************************************
** MbDPart D'Alembert element loads
*DLOAD
15,GRAV,14784937.77812,0.07079172945698,4.276919430024E-17,-0.9974911182765
16,GRAV,14461482.10254,0.02821350023356,4.264882891501E-17,-0.9996019199684
17,GRAV,13883421.82851,7.116443865361E-05,4.252743657454E-17,-0.9999999974678
18,GRAV,13184443.88977,-0.004956659472318,4.250316305682E-17,-0.999987715688
19,GRAV,12547688.9409,0.01807249486544,4.261172720766E-17,-0.9998366791278
20,GRAV,12164891.17388,0.06568669743694,4.276302340168E-17,-0.9978402967308
21,GRAV,12164891.17425,0.1231586349471,4.281539251459E-17,-0.9923869964071
22,GRAV,12547688.94187,0.1702985854805,4.27504374318E-17,-0.9853925064579
23,GRAV,13184443.89103,0.1929451648952,4.268349355298E-17,-0.981209540997
24,GRAV,13883421.8297,0.1880093781805,4.269868811038E-17,-0.9821672330699
25,GRAV,14461482.10338,0.1602944045429,4.276918260619E-17,-0.9870692497856
26,GRAV,14784937.77842,0.118079034677,4.281228305528E-17,-0.9930042001773
27,GRAV,14874855.12554,0.09446202673128,4.280268773987E-17,-0.9955284654423
28,GRAV,14784937.77812,0.07079172945698,4.276919430024E-17,-0.9974911182765
29,GRAV,14461482.10254,0.02821350023356,4.264882891501E-17,-0.9996019199684
30,GRAV,13883421.82851,7.116443865361E-05,4.252743657454E-17,-0.9999999974678
31,GRAV,13184443.88977,-0.004956659472318,4.250316305682E-17,-0.999987715688
32,GRAV,12547688.9409,0.01807249486544,4.261172720766E-17,-0.9998366791278
33,GRAV,12164891.17388,0.06568669743694,4.276302340168E-17,-0.9978402967308
34,GRAV,12164891.17425,0.1231586349471,4.281539251459E-17,-0.9923869964071
35,GRAV,12547688.94187,0.1702985854805,4.27504374318E-17,-0.9853925064579
36,GRAV,13184443.89103,0.1929451648952,4.268349355298E-17,-0.981209540997
37,GRAV,13883421.8297,0.1880093781805,4.269868811038E-17,-0.9821672330699
38,GRAV,14461482.10338,0.1602944045429,4.276918260619E-17,-0.9870692497856
39,GRAV,14784937.77842,0.118079034677,4.281228305528E-17,-0.9930042001773
40,GRAV,13995188.71179,0.08446612349379,4.279265561006E-17,-0.9964263515092
41,GRAV,13859341.21372,0.06686193875592,4.276259898663E-17,-0.9977622367808
42,GRAV,13620841.15262,0.05607979755198,4.273788014257E-17,-0.9984262898715
43,GRAV,13340141.5776,0.05527066472208,4.273624565297E-17,-0.9984714085146
44,GRAV,13092186.68292,0.0652424266647,4.276037555639E-17,-0.9978694432454
45,GRAV,12946867.72723,0.08365632870698,4.279323479419E-17,-0.9964946656492
46,GRAV,12946867.72737,0.1052566070168,4.281291722468E-17,-0.9944450948541
47,GRAV,13092186.68329,0.1236004589793,4.281355208952E-17,-0.9923320646538
48,GRAV,13340141.5781,0.1335074805446,4.280753597009E-17,-0.9910478054255
49,GRAV,13620841.1531,0.1327043017189,4.280770130216E-17,-0.9911556730934
50,GRAV,13859341.21407,0.1219896855753,4.281283204526E-17,-0.9925313680752
51,GRAV,13995188.71191,0.104448415402,4.281086371213E-17,-0.9945303054809
52,GRAV,13995188.71179,0.08446612349379,4.279265561006E-17,-0.9964263515092
53,GRAV,13859341.21372,0.06686193875592,4.276259898663E-17,-0.9977622367808
54,GRAV,13620841.15262,0.05607979755198,4.273788014257E-17,-0.9984262898715
55,GRAV,13340141.5776,0.05527066472208,4.273624565297E-17,-0.9984714085146
56,GRAV,13092186.68292,0.0652424266647,4.276037555639E-17,-0.9978694432454
57,GRAV,12946867.72723,0.08365632870698,4.279323479419E-17,-0.9964946656492
58,GRAV,12946867.72737,0.1052566070168,4.281291722468E-17,-0.9944450948541
59,GRAV,13092186.68329,0.1236004589793,4.281355208952E-17,-0.9923320646538
60,GRAV,13340141.5781,0.1335074805446,4.280753597009E-17,-0.9910478054255
61,GRAV,13620841.1531,0.1327043017189,4.280770130216E-17,-0.9911556730934
62,GRAV,13859341.21407,0.1219896855753,4.281283204526E-17,-0.9925313680752
63,GRAV,13995188.71191,0.104448415402,4.281086371213E-17,-0.9945303054809
64,GRAV,14032118.96321,0.09446202675664,4.280385972654E-17,-0.9955284654399
65,GRAV,14032118.96321,0.09446202675664,4.280385972654E-17,-0.9955284654399
66,GRAV,14032118.96321,0.09446202675664,4.280385972654E-17,-0.9955284654399
67,GRAV,8000219.512757,0.1380660378397,4.28180423702E-17,-0.9904230253761
68,GRAV,12632439.90242,0.1220979266353,4.281483566552E-17,-0.9925180584309
69,GRAV,8000219.512757,0.1380660378397,4.28180423702E-17,-0.9904230253761
70,GRAV,3375772.96243,0.1975021741505,4.273143936667E-17,-0.9803024488421
71,GRAV,8000219.512203,0.05067595257204,4.273841148628E-17,-0.9987151484938
72,GRAV,12632439.90206,0.06675312620203,4.276440482517E-17,-0.9977695225563
73,GRAV,8000219.512203,0.05067595257204,4.273841148628E-17,-0.9987151484938
74,GRAV,3375772.961118,-0.009602946129014,4.254272273013E-17,-0.9999538906498
75,GRAV,3357460.907046,0.09446202817998,4.286962956744E-17,-0.9955284653048
76,GRAV,12627558.69266,0.09446202680643,4.280616066375E-17,-0.9955284654351
77,GRAV,3357460.907046,0.09446202817998,4.286962956744E-17,-0.9955284653048
78,GRAV,12627558.69266,0.09446202680643,4.280616066375E-17,-0.9955284654351
79,GRAV,5215343.024677,0.0002033449301985,4.256283901953E-17,-0.9999999793254
80,GRAV,4888637.183749,-0.1826764094038,4.094706916598E-17,-0.9831730923125
81,GRAV,4263944.532241,-0.343078599734,3.829807234514E-17,-0.9393066987968
82,GRAV,3402817.111467,-0.4571924952071,3.562835447666E-17,-0.8893677655089
83,GRAV,2421076.984773,-0.4736636106269,3.521331890266E-17,-0.8807058441772
84,GRAV,1600182.626133,-0.2159448464582,4.061693564661E-17,-0.9764055629134
85,GRAV,1600182.63001,0.3957327171224,4.117430343129E-17,-0.918365731394
86,GRAV,2421076.991774,0.6308530568931,3.621976754643E-17,-0.7759023267194
87,GRAV,3402817.118272,0.616305014405,3.660653812518E-17,-0.7875075423253
88,GRAV,4263944.537672,0.5136200905536,3.907870634941E-17,-0.8580177169382
89,GRAV,4888637.187217,0.3643308209699,4.144550864228E-17,-0.9312695919504
90,GRAV,5215343.025867,0.1878795546668,4.273385180814E-17,-0.9821920753795
91,GRAV,5323845.285813,0.09446202748891,4.283769661556E-17,-0.9955284653704
92,GRAV,5215343.024677,0.0002033449301985,4.256283901953E-17,-0.9999999793254
93,GRAV,4888637.183749,-0.1826764094038,4.094706916598E-17,-0.9831730923125
94,GRAV,4263944.532241,-0.343078599734,3.829807234514E-17,-0.9393066987968
95,GRAV,3402817.111467,-0.4571924952071,3.562835447666E-17,-0.8893677655089
96,GRAV,2421076.984773,-0.4736636106269,3.521331890266E-17,-0.8807058441772
97,GRAV,1600182.626133,-0.2159448464582,4.061693564661E-17,-0.9764055629134
98,GRAV,1600182.63001,0.3957327171224,4.117430343129E-17,-0.918365731394
99,GRAV,2421076.991774,0.6308530568931,3.621976754643E-17,-0.7759023267194
100,GRAV,3402817.118272,0.616305014405,3.660653812518E-17,-0.7875075423253
101,GRAV,4263944.537672,0.5136200905536,3.907870634941E-17,-0.8580177169382
102,GRAV,4888637.187217,0.3643308209699,4.144550864228E-17,-0.9312695919504
103,GRAV,5215343.025867,0.1878795546668,4.273385180814E-17,-0.9821920753795
104,GRAV,14813979.70368,0.07871869821441,4.27830911577E-17,-0.9968968685634
105,GRAV,14813979.70388,0.1101817657294,4.28117606791E-17,-0.9939114540545
106,GRAV,14756833.76001,0.06282956411135,4.275252532406E-17,-0.9980242711846
107,GRAV,14756833.76041,0.1259993810464,4.281008641271E-17,-0.992030320089
108,GRAV,14541579.31428,0.03448070512854,4.267135148231E-17,-0.9994053636907
109,GRAV,13769922.96184,-0.002998621610634,4.251223945967E-17,-0.9999955041241
110,GRAV,14381959.78742,0.02187561038739,4.262435155789E-17,-0.9997607002029
111,GRAV,13997049.40471,0.003091137221937,4.254199602982E-17,-0.9999952224239
112,GRAV,13064874.18194,-0.00345850548919,4.251104006699E-17,-0.999994019352
113,GRAV,13304042.6582,-0.006427870122654,4.249533481118E-17,-0.9999793410294
114,GRAV,12639919.38688,0.0118324295788,4.258467108803E-17,-0.9999299943547
115,GRAV,12200171.59009,0.0561886184509,4.274063973282E-17,-0.9984201716495
116,GRAV,12455954.41886,0.02440400162578,4.263748637354E-17,-0.9997021780034
117,GRAV,12130718.64314,0.1136557156619,4.281664081747E-17,-0.9935201952137
118,GRAV,12130718.64289,0.07523315741954,4.278162972549E-17,-0.9971659701497
119,GRAV,12639919.38792,0.1764448402845,4.273466787437E-17,-0.984310529425
120,GRAV,12200171.59058,0.1325962722501,4.28102632956E-17,-0.9911701309994
121,GRAV,12455954.41974,0.1640547748673,4.276473781891E-17,-0.9864512308489
122,GRAV,13064874.18318,0.1914749327885,4.26886657344E-17,-0.9814975038754
123,GRAV,13997049.40586,0.1850424021877,4.270779218675E-17,-0.9827305375293
124,GRAV,13304042.65947,0.1943885449928,4.267832111713E-17,-0.9809246115658
125,GRAV,13769922.96307,0.1910235352728,4.268903475684E-17,-0.981585456785
126,GRAV,14381959.78834,0.166549050738,4.275617971768E-17,-0.9860331706886
127,GRAV,14541579.31504,0.154102076954,4.278035189928E-17,-0.9880549326219
128,GRAV,14645770.0474,0.07309210201439,4.277370220968E-17,-0.9973251950207
129,GRAV,14640920.6484,0.1158842697679,4.281261303471E-17,-0.9932627225565
130,GRAV,14530521.05262,0.09455158800352,4.280323161395E-17,-0.9955199632383
131,GRAV,14119280.59002,0.08221397161119,4.27893436625E-17,-0.9966147013124
132,GRAV,14114418.47731,0.1067921055015,4.281169558122E-17,-0.9942813717467
133,GRAV,14249608.99967,0.09455335358529,4.280362703181E-17,-0.9955197955469
134,GRAV,14349057.6345,0.03485377981226,4.267291387986E-17,-0.9993924224412
135,GRAV,14397628.3206,0.05766459043946,4.274072899782E-17,-0.9983360130785
136,GRAV,13830848.4534,0.01042738415758,4.25764112182E-17,-0.9999456333519
137,GRAV,14025159.24144,0.02953848140252,4.265437771386E-17,-0.9995636438549
138,GRAV,13211579.74651,0.006039447413433,4.255723466422E-17,-0.9999817623712
139,GRAV,13512418.92106,0.01664907532999,4.260408807316E-17,-0.9998613945396
140,GRAV,12641406.34802,0.02667215589373,4.264589636655E-17,-0.9996442347655
141,GRAV,12973891.66978,0.02371955716935,4.263387206616E-17,-0.9997186517254
142,GRAV,12305676.64575,0.06931302166804,4.277025233782E-17,-0.9975949604059
143,GRAV,12562600.47477,0.0524589302582,4.273013696273E-17,-0.998623082367
144,GRAV,12311394.08147,0.1196271229633,4.281600533712E-17,-0.9928188915666
145,GRAV,12418024.66491,0.09454935766251,4.28066279495E-17,-0.9955201750671
146,GRAV,12642380.38925,0.1614293319578,4.276981978161E-17,-0.986884274261
147,GRAV,12569434.32071,0.1359759395192,4.280680751644E-17,-0.990712139762
148,GRAV,13208338.79641,0.1824325085628,4.271686225047E-17,-0.9832183784997
149,GRAV,12971540.65037,0.1646431454937,4.276255379548E-17,-0.9863531997423
150,GRAV,13830173.40653,0.1778769010378,4.27288148883E-17,-0.984052746593
151,GRAV,13508457.89706,0.1720312569204,4.274456422963E-17,-0.9850914915085
152,GRAV,14348258.99309,0.1537515467038,4.27812087917E-17,-0.9881095394167
153,GRAV,14023673.91089,0.15905260943,4.277220697185E-17,-0.9872701086499
154,GRAV,14391996.84954,0.1312502590596,4.280759889115E-17,-0.9913492671591
155,GRAV,13947748.01614,0.06064691046622,4.274861310936E-17,-0.9981592820041
156,GRAV,14149944.41917,0.06693177368138,4.276231511928E-17,-0.9977575545551
157,GRAV,13656363.89766,0.04780166330347,4.271519509398E-17,-0.9988568470934
158,GRAV,13871151.51484,0.04636985599257,4.271065529288E-17,-0.9989243397051
159,GRAV,13315855.98787,0.04617829319197,4.271095798162E-17,-0.9989332136023
160,GRAV,13493449.74037,0.03739779199388,4.268286633188E-17,-0.9993004578974
161,GRAV,13004638.15307,0.0580899580335,4.274394355477E-17,-0.9983113526229
162,GRAV,13099201.66409,0.04299436669745,4.27016158842E-17,-0.9990753146947
163,GRAV,12827074.97309,0.08125683876657,4.279001873093E-17,-0.9966931955992
164,GRAV,12800633.064,0.0642022146218,4.275860499068E-17,-0.9979369096479
165,GRAV,12832780.67874,0.1077291565272,4.281408571216E-17,-0.9941802798456
166,GRAV,12698936.71796,0.09454742582125,4.280610911662E-17,-0.9955203585415
167,GRAV,13005767.50362,0.1303331072377,4.281035684429E-17,-0.9914702623668
168,GRAV,12807514.40002,0.1243249122499,4.281377998262E-17,-0.9922415614124
169,GRAV,13312462.11691,0.1428025127842,4.279842654243E-17,-0.9897512022435
170,GRAV,13096873.13887,0.145588480669,4.279530448562E-17,-0.9893452351411
171,GRAV,13655663.49852,0.1409638957342,4.279998942519E-17,-0.9900147373143
172,GRAV,13489395.62146,0.1515428194331,4.278607704825E-17,-0.9884506937011
173,GRAV,13946942.77137,0.1281859199022,4.28101311842E-17,-0.9917501549981
174,GRAV,13869650.42652,0.1424004898442,4.279802479285E-17,-0.9898091232617
175,GRAV,14144297.08522,0.1220382246911,4.281239645982E-17,-0.9925254010423
176,GRAV,14645770.0474,0.07309210201439,4.277370220968E-17,-0.9973251950207
177,GRAV,14640920.6484,0.1158842697679,4.281261303471E-17,-0.9932627225565
178,GRAV,14530521.05262,0.09455158800352,4.280323161395E-17,-0.9955199632383
179,GRAV,14119280.59002,0.08221397161119,4.27893436625E-17,-0.9966147013124
180,GRAV,14114418.47731,0.1067921055015,4.281169558122E-17,-0.9942813717467
181,GRAV,14249608.99967,0.09455335358529,4.280362703181E-17,-0.9955197955469
182,GRAV,14349057.6345,0.03485377981226,4.267291387986E-17,-0.9993924224412
183,GRAV,14397628.3206,0.05766459043946,4.274072899782E-17,-0.9983360130785
184,GRAV,13830848.4534,0.01042738415758,4.25764112182E-17,-0.9999456333519
185,GRAV,14025159.24144,0.02953848140252,4.265437771386E-17,-0.9995636438549
186,GRAV,13211579.74651,0.006039447413433,4.255723466422E-17,-0.9999817623712
187,GRAV,13512418.92106,0.01664907532999,4.260408807316E-17,-0.9998613945396
188,GRAV,12641406.34802,0.02667215589373,4.264589636655E-17,-0.9996442347655
189,GRAV,12973891.66978,0.02371955716935,4.263387206616E-17,-0.9997186517254
190,GRAV,12305676.64575,0.06931302166804,4.277025233782E-17,-0.9975949604059
191,GRAV,12562600.47477,0.0524589302582,4.273013696273E-17,-0.998623082367
192,GRAV,12311394.08147,0.1196271229633,4.281600533712E-17,-0.9928188915666
193,GRAV,12418024.66491,0.09454935766251,4.28066279495E-17,-0.9955201750671
194,GRAV,12642380.38925,0.1614293319578,4.276981978161E-17,-0.986884274261
195,GRAV,12569434.32071,0.1359759395192,4.280680751644E-17,-0.990712139762
196,GRAV,13208338.79641,0.1824325085628,4.271686225047E-17,-0.9832183784997
197,GRAV,12971540.65037,0.1646431454937,4.276255379548E-17,-0.9863531997423
198,GRAV,13830173.40653,0.1778769010378,4.27288148883E-17,-0.984052746593
199,GRAV,13508457.89706,0.1720312569204,4.274456422963E-17,-0.9850914915085
200,GRAV,14348258.99309,0.1537515467038,4.27812087917E-17,-0.9881095394167
201,GRAV,14023673.91089,0.15905260943,4.277220697185E-17,-0.9872701086499
202,GRAV,14391996.84954,0.1312502590596,4.280759889115E-17,-0.9913492671591
203,GRAV,13947748.01614,0.06064691046622,4.274861310936E-17,-0.9981592820041
204,GRAV,14149944.41917,0.06693177368138,4.276231511928E-17,-0.9977575545551
205,GRAV,13656363.89766,0.04780166330347,4.271519509398E-17,-0.9988568470934
206,GRAV,13871151.51484,0.04636985599257,4.271065529288E-17,-0.9989243397051
207,GRAV,13315855.98787,0.04617829319197,4.271095798162E-17,-0.9989332136023
208,GRAV,13493449.74037,0.03739779199388,4.268286633188E-17,-0.9993004578974
209,GRAV,13004638.15307,0.0580899580335,4.274394355477E-17,-0.9983113526229
210,GRAV,13099201.66409,0.04299436669745,4.27016158842E-17,-0.9990753146947
211,GRAV,12827074.97309,0.08125683876657,4.279001873093E-17,-0.9966931955992
212,GRAV,12800633.064,0.0642022146218,4.275860499068E-17,-0.9979369096479
213,GRAV,12832780.67874,0.1077291565272,4.281408571216E-17,-0.9941802798456
214,GRAV,12698936.71796,0.09454742582125,4.280610911662E-17,-0.9955203585415
215,GRAV,13005767.50362,0.1303331072377,4.281035684429E-17,-0.9914702623668
216,GRAV,12807514.40002,0.1243249122499,4.281377998262E-17,-0.9922415614124
217,GRAV,13312462.11691,0.1428025127842,4.279842654243E-17,-0.9897512022435
218,GRAV,13096873.13887,0.145588480669,4.279530448562E-17,-0.9893452351411
219,GRAV,13655663.49852,0.1409638957342,4.279998942519E-17,-0.9900147373143
220,GRAV,13489395.62146,0.1515428194331,4.278607704825E-17,-0.9884506937011
221,GRAV,13946942.77137,0.1281859199022,4.28101311842E-17,-0.9917501549981
222,GRAV,13869650.42652,0.1424004898442,4.279802479285E-17,-0.9898091232617
223,GRAV,14144297.08522,0.1220382246911,4.281239645982E-17,-0.9925254010423
224,GRAV,14001368.86253,0.08435299400587,4.279249444435E-17,-0.9964359349212
225,GRAV,14001368.86266,0.104561328405,4.281090851903E-17,-0.9945184405541
226,GRAV,14025821.48419,0.09790179761029,4.280674841953E-17,-0.9951960801896
227,GRAV,14025821.48415,0.0910211277903,4.280047867135E-17,-0.9958489615879
228,GRAV,14002798.70644,0.08477703800124,4.279305927791E-17,-0.9963999467221
229,GRAV,14002798.70657,0.1041380833276,4.281070129271E-17,-0.9945628484922
230,GRAV,14027291.17956,0.0914434930863,4.280092010878E-17,-0.9958102668542
231,GRAV,14027291.1796,0.0974796922308,4.280642036524E-17,-0.9952375141656
232,GRAV,13858176.85137,0.06612357342157,4.276104143363E-17,-0.9978114416251
233,GRAV,13932657.4006,0.07230762978631,4.277326843871E-17,-0.9973823773632
234,GRAV,13985379.96622,0.07878499085412,4.278435726685E-17,-0.9968916316311
235,GRAV,13620627.17243,0.05558621219069,4.273661319155E-17,-0.9984538912811
236,GRAV,13745181.05568,0.05951102480587,4.274620945801E-17,-0.9982276483481
237,GRAV,13338734.92203,0.05480476603028,4.27350359252E-17,-0.9984970894401
238,GRAV,13479378.5777,0.05379106539022,4.273213973012E-17,-0.9985522125979
239,GRAV,13087809.48665,0.064888456906,4.275961382711E-17,-0.9978925233513
240,GRAV,13204328.45288,0.05855076269087,4.274474015796E-17,-0.9982844325082
241,GRAV,12940722.32591,0.08352400673914,4.279306298403E-17,-0.9965057653111
242,GRAV,12997693.09589,0.07341389563282,4.277680171621E-17,-0.9973015591726
243,GRAV,12940722.32605,0.1053886551639,4.281298631171E-17,-0.9944311094102
244,GRAV,12921233.20828,0.09446202679513,4.280563820748E-17,-0.9955284654362
245,GRAV,13087809.48702,0.1239524526308,4.281343364249E-17,-0.9922881584937
246,GRAV,12997693.09616,0.1154680120475,4.281512192726E-17,-0.9933111990679
247,GRAV,13338734.92253,0.1339698947888,4.28071721321E-17,-0.990985402158
248,GRAV,13204328.45333,0.1302507533913,4.281007404226E-17,-0.9914810846612
249,GRAV,13620627.17292,0.1331942697353,4.280733057668E-17,-0.9910899487482
250,GRAV,13479378.57822,0.1349758722899,4.280611629179E-17,-0.9908488855015
251,GRAV,13858176.85173,0.1227241283433,4.281261653252E-17,-0.9924408235872
252,GRAV,13745181.05612,0.1292969482963,4.280979922156E-17,-0.9916059192851
253,GRAV,13932657.40088,0.1165697354707,4.28136005959E-17,-0.9931825092964
254,GRAV,13985379.96641,0.1101156712498,4.28129061555E-17,-0.9939187788472
255,GRAV,13858176.85137,0.06612357342157,4.276104143363E-17,-0.9978114416251
256,GRAV,13932657.4006,0.07230762978631,4.277326843871E-17,-0.9973823773632
257,GRAV,13986776.50129,0.07921027743259,4.278502546821E-17,-0.9968579296716
258,GRAV,13620627.17243,0.05558621219069,4.273661319155E-17,-0.9984538912811
259,GRAV,13745181.05568,0.05951102480587,4.274620945801E-17,-0.9982276483481
260,GRAV,13338734.92203,0.05480476603028,4.27350359252E-17,-0.9984970894401
261,GRAV,13479378.5777,0.05379106539022,4.273213973012E-17,-0.9985522125979
262,GRAV,13087809.48665,0.064888456906,4.275961382711E-17,-0.9978925233513
263,GRAV,13204328.45288,0.05855076269087,4.274474015796E-17,-0.9982844325082
264,GRAV,12940722.32591,0.08352400673914,4.279306298403E-17,-0.9965057653111
265,GRAV,12997693.09589,0.07341389563282,4.277680171621E-17,-0.9973015591726
266,GRAV,12940722.32605,0.1053886551639,4.281298631171E-17,-0.9944311094102
267,GRAV,12921233.20828,0.09446202679513,4.280563820748E-17,-0.9955284654362
268,GRAV,13087809.48702,0.1239524526308,4.281343364249E-17,-0.9922881584937
269,GRAV,12997693.09616,0.1154680120475,4.281512192726E-17,-0.9933111990679
270,GRAV,13338734.92253,0.1339698947888,4.28071721321E-17,-0.990985402158
271,GRAV,13204328.45333,0.1302507533913,4.281007404226E-17,-0.9914810846612
272,GRAV,13620627.17292,0.1331942697353,4.280733057668E-17,-0.9910899487482
273,GRAV,13479378.57822,0.1349758722899,4.280611629179E-17,-0.9908488855015
274,GRAV,13858176.85173,0.1227241283433,4.281261653252E-17,-0.9924408235872
275,GRAV,13745181.05612,0.1292969482963,4.280979922156E-17,-0.9916059192851
276,GRAV,13932657.40088,0.1165697354707,4.28136005959E-17,-0.9931825092964
277,GRAV,13986776.50148,0.1096916357588,4.281280044449E-17,-0.9939656659284
278,GRAV,14027291.17956,0.0914434930863,4.280092010878E-17,-0.9958102668542
279,GRAV,14027291.1796,0.0974796922308,4.280642036524E-17,-0.9952375141656
280,GRAV,14009308.96632,0.10344271189,4.28103378706E-17,-0.9946354132831
281,GRAV,14010745.51027,0.1030197715659,4.281011034784E-17,-0.994679308454
282,GRAV,14009308.96621,0.08547364766925,4.279396424554E-17,-0.9963404315565
283,GRAV,14010745.51016,0.08589729590901,4.279450814435E-17,-0.9963039970589
284,GRAV,6457048.227565,0.1484599783118,4.281415101591E-17,-0.9889184166753
285,GRAV,9543987.814912,0.1310253118903,4.281799664138E-17,-0.9913790232015
286,GRAV,6457048.226879,0.04018451857527,4.271548913152E-17,-0.9991922760244
287,GRAV,9543987.814448,0.0577708317988,4.275124628843E-17,-0.9983298708309
288,GRAV,6448555.837589,0.1125161410234,4.283760426845E-17,-0.9936498971012
289,GRAV,9538244.282133,0.08223848260945,4.279925281975E-17,-0.9966126790173
290,GRAV,6448555.837589,0.1125161410234,4.283760426845E-17,-0.9936498971012
291,GRAV,9538244.282133,0.08223848260945,4.279925281975E-17,-0.9966126790173
292,GRAV,3365611.899064,0.1634767183852,4.282890141631E-17,-0.9865471922549
293,GRAV,3357460.907046,0.09446202817998,4.286962956744E-17,-0.9955284653048
294,GRAV,3357460.907046,0.09446202817998,4.286962956744E-17,-0.9955284653048
295,GRAV,3365611.898186,0.02498979310635,4.270271049117E-17,-0.9996877063566
296,GRAV,12629728.35216,0.1128980267643,4.281562088822E-17,-0.9936065798659
297,GRAV,12627558.69266,0.09446202680643,4.280616066375E-17,-0.9955284654351
298,GRAV,12627558.69266,0.09446202680643,4.280616066375E-17,-0.9955284654351
299,GRAV,12629728.35193,0.07599357160971,4.278199310979E-17,-0.9971083075945
300,GRAV,5246276.646365,0.03208766145998,4.26982744565E-17,-0.9994850584086
301,GRAV,5246276.647153,0.156467404449,4.281161075379E-17,-0.9876831229423
302,GRAV,5189773.265648,-0.03202832056798,4.238193843969E-17,-0.9994869617367
303,GRAV,5189773.267242,0.2194395210781,4.261107892E-17,-0.9756261049137
304,GRAV,4808538.882299,-0.2129111450132,4.053921103521E-17,-0.9770715656129
305,GRAV,4973234.391724,-0.1532776852843,4.130437881675E-17,-0.9881831567042
306,GRAV,4136382.428478,-0.3679684985782,3.777463721905E-17,-0.9298382569319
307,GRAV,4394353.85721,-0.3194275774752,3.87659647455E-17,-0.9476106915545
308,GRAV,3564868.460593,-0.4443290592352,3.596419497167E-17,-0.895863654313
309,GRAV,2587643.824768,-0.4849454075964,3.488792046831E-17,-0.8745444252016
310,GRAV,3241542.983795,-0.47122936518,3.525047322813E-17,-0.8820107059396
311,GRAV,1514769.990757,-0.1231646768226,4.176519036281E-17,-0.992386246571
312,GRAV,2254969.276391,-0.4606209734143,3.557955347178E-17,-0.887596934904
313,GRAV,1698293.325073,-0.297084266416,3.92890742088E-17,-0.9548512651969
314,GRAV,1514769.993487,0.3076139524011,4.215772090664E-17,-0.9515112486399
315,GRAV,2254969.283236,0.6193392521802,3.656362598689E-17,-0.785123487554
316,GRAV,1698293.329943,0.4713701934419,3.998929895465E-17,-0.8819354515692
317,GRAV,3241542.990767,0.6287076699618,3.625274888265E-17,-0.7776417335323
318,GRAV,2587643.831904,0.6407746817614,3.591368992834E-17,-0.7677289933391
319,GRAV,4394353.862353,0.491952956863,3.950530430961E-17,-0.8706217825404
320,GRAV,3564868.467243,0.6048928832006,3.692025843838E-17,-0.7963068503117
321,GRAV,4136382.434209,0.5362849829058,3.8598603712E-17,-0.8440369761508
322,GRAV,4808538.886138,0.3928784122744,4.109121366476E-17,-0.9195904268579
323,GRAV,4973234.394828,0.3363990401256,4.175057805717E-17,-0.9417195367001
324,GRAV,5048147.67011,0.005802666432339,4.259165332375E-17,-0.9999831643894
325,GRAV,4925858.415914,0.1781081839669,4.276612028616E-17,-0.9840109119334
326,GRAV,4788449.479071,0.08777738944186,4.28367397949E-17,-0.9961401155976
327,GRAV,4633974.837026,-0.1523144759797,4.131974466787E-17,-0.9883320800252
328,GRAV,4663679.256864,-0.05334915484361,4.224410286039E-17,-0.9985759198366
329,GRAV,4155805.827327,-0.3137497608184,3.88783800678E-17,-0.9495057069794
330,GRAV,4235351.679338,-0.2048312525551,4.06606858407E-17,-0.9787973017825
331,GRAV,3325652.37945,-0.3806785660911,3.751080830899E-17,-0.9247074290384
332,GRAV,3679243.31788,-0.3001415082483,3.914127157964E-17,-0.9538946875974
333,GRAV,2459970.727342,-0.4130224897618,3.678708340582E-17,-0.9107208260224
334,GRAV,2886165.601067,-0.3363276927228,3.846759348583E-17,-0.9417450202192
335,GRAV,1853796.928236,-0.1310988057028,4.16476886119E-17,-0.991369307142
336,GRAV,2260071.597095,-0.2381949871424,4.023342497954E-17,-0.9712173536857
337,GRAV,1977654.222281,0.3762338431756,4.139007666688E-17,-0.9265247407648
338,GRAV,2139765.871689,0.1649879435298,4.287508845293E-17,-0.9862955837323
339,GRAV,2495380.010054,0.5370430865176,3.862800587198E-17,-0.8435548134079
340,GRAV,3481980.62095,0.5279734999254,3.879274334669E-17,-0.84926084531
341,GRAV,3093483.885293,0.453224536562,4.022463977997E-17,-0.8913963873935
342,GRAV,4079299.012799,0.4658422211251,3.998684610389E-17,-0.8848678008704
343,GRAV,4741054.906766,0.3480930722448,4.163019967143E-17,-0.9374599794419
344,GRAV,4279257.062702,0.3750657012502,4.132548315715E-17,-0.9269982307134
345,GRAV,4640481.576461,0.2526985269349,4.243865349952E-17,-0.9675450658677
346,GRAV,3795821.239869,0.2028793279522,4.270180950652E-17,-0.979203747077
347,GRAV,3928053.068642,0.05584276519452,4.27898593833E-17,-0.9984395753251
348,GRAV,3255235.556898,0.2666144641861,4.237502939788E-17,-0.9638032618158
349,GRAV,2971118.009573,-0.04570283916842,4.233348350133E-17,-0.9989550793164
350,GRAV,2793957.802433,0.1485175574534,4.287300695193E-17,-0.9889097709741
351,GRAV,3555171.244955,-0.06570365647059,4.21711073796E-17,-0.9978391801921
352,GRAV,4167554.275734,0.2704984667096,4.23286851882E-17,-0.9627204056775
353,GRAV,4381250.703313,0.03246139984488,4.271053353712E-17,-0.9994729898902
354,GRAV,2717796.813855,-0.1814013120379,4.101083540681E-17,-0.9834091539084
355,GRAV,3768860.990457,-0.1772267391901,4.10340333379E-17,-0.9841700477641
356,GRAV,5048147.67011,0.005802666432339,4.259165332375E-17,-0.9999831643894
357,GRAV,4925858.415914,0.1781081839669,4.276612028616E-17,-0.9840109119334
358,GRAV,4788449.479071,0.08777738944186,4.28367397949E-17,-0.9961401155976
359,GRAV,4633974.837026,-0.1523144759797,4.131974466787E-17,-0.9883320800252
360,GRAV,4663679.256864,-0.05334915484361,4.224410286039E-17,-0.9985759198366
361,GRAV,4155805.827327,-0.3137497608184,3.88783800678E-17,-0.9495057069794
362,GRAV,4235351.679338,-0.2048312525551,4.06606858407E-17,-0.9787973017825
363,GRAV,3325652.37945,-0.3806785660911,3.751080830899E-17,-0.9247074290384
364,GRAV,3679243.31788,-0.3001415082483,3.914127157964E-17,-0.9538946875974
365,GRAV,2459970.727342,-0.4130224897618,3.678708340582E-17,-0.9107208260224
366,GRAV,2886165.601067,-0.3363276927228,3.846759348583E-17,-0.9417450202192
367,GRAV,1853796.928236,-0.1310988057028,4.16476886119E-17,-0.991369307142
368,GRAV,2260071.597095,-0.2381949871424,4.023342497954E-17,-0.9712173536857
369,GRAV,1977654.222281,0.3762338431756,4.139007666688E-17,-0.9265247407648
370,GRAV,2139765.871689,0.1649879435298,4.287508845293E-17,-0.9862955837323
371,GRAV,2495380.010054,0.5370430865176,3.862800587198E-17,-0.8435548134079
372,GRAV,3481980.62095,0.5279734999254,3.879274334669E-17,-0.84926084531
373,GRAV,3093483.885293,0.453224536562,4.022463977997E-17,-0.8913963873935
374,GRAV,4079299.012799,0.4658422211251,3.998684610389E-17,-0.8848678008704
375,GRAV,4741054.906766,0.3480930722448,4.163019967143E-17,-0.9374599794419
376,GRAV,4279257.062702,0.3750657012502,4.132548315715E-17,-0.9269982307134
377,GRAV,4640481.576461,0.2526985269349,4.243865349952E-17,-0.9675450658677
378,GRAV,3795821.239869,0.2028793279522,4.270180950652E-17,-0.979203747077
379,GRAV,3928053.068642,0.05584276519452,4.27898593833E-17,-0.9984395753251
380,GRAV,3255235.556898,0.2666144641861,4.237502939788E-17,-0.9638032618158
381,GRAV,2971118.009573,-0.04570283916842,4.233348350133E-17,-0.9989550793164
382,GRAV,2793957.802433,0.1485175574534,4.287300695193E-17,-0.9889097709741
383,GRAV,3555171.244955,-0.06570365647059,4.21711073796E-17,-0.9978391801921
384,GRAV,4167554.275734,0.2704984667096,4.23286851882E-17,-0.9627204056775
385,GRAV,4381250.703313,0.03246139984488,4.271053353712E-17,-0.9994729898902
386,GRAV,2717796.813855,-0.1814013120379,4.101083540681E-17,-0.9834091539084
387,GRAV,3768860.990457,-0.1772267391901,4.10340333379E-17,-0.9841700477641
388,GRAV,13942925.59806,0.006434357138164,4.255793013918E-17,-0.9999792993099
389,GRAV,13772320.96397,0.001909305714035,4.253661649614E-17,-0.9999981772742
390,GRAV,12915892.31613,0.05868329560811,4.274555560252E-17,-0.9982766504414
391,GRAV,12757137.99666,0.08551512519033,4.279605180956E-17,-0.99633687243
392,GRAV,12917591.44301,0.1295523697927,4.281099803932E-17,-0.9915725810454
393,GRAV,13373178.27488,0.04116893416835,4.269540421234E-17,-0.9991522000473
394,GRAV,13731608.15376,0.1432432552643,4.279723294767E-17,-0.989687511198
395,GRAV,14202121.70915,0.118508474269,4.281303750762E-17,-0.9929530409473
396,GRAV,12792670.28092,0.06161858813945,4.275276699514E-17,-0.9980997693596
397,GRAV,14144398.30932,0.1257728293724,4.281103992657E-17,-0.9920590684993
398,GRAV,12732320.67283,0.06981775879561,4.277046145902E-17,-0.9975597628998
399,GRAV,13472065.56812,0.03552682619528,4.26765512415E-17,-0.999368723055
400,GRAV,12798684.14675,0.1266834884649,4.281277492568E-17,-0.9919431907878
401,GRAV,12675412.42338,0.09288084562416,4.280457924162E-17,-0.9956772310926
402,GRAV,13956909.34457,0.1405147452524,4.280002377459E-17,-0.990078585955
403,GRAV,13587034.47028,0.03634141264556,4.267915159773E-17,-0.9993394326889
404,GRAV,12741785.89939,0.1188724512785,4.281533029658E-17,-0.992909532801
405,GRAV,12680023.26548,0.1019404957694,4.281167442468E-17,-0.9947904982067
406,GRAV,13857635.80793,0.1447283791976,4.279519874701E-17,-0.989471422657
407,GRAV,14020540.09418,0.1290669576327,4.280952084302E-17,-0.9916358809802
408,GRAV,14109057.89903,0.09438467081733,4.280367630406E-17,-0.9955358024274
409,GRAV,14095173.73306,0.1054591039296,4.281117999296E-17,-0.9944236408083
410,GRAV,14096425.14876,0.0985132472862,4.280710320494E-17,-0.9951357395397
411,GRAV,13446360.6211,0.1694282373232,4.275096471441E-17,-0.9855425269351
412,GRAV,14483142.61297,0.100572884014,4.280797894913E-17,-0.9949296934965
413,GRAV,13219729.14123,0.05086042227582,4.272459941596E-17,-0.9987057712089
414,GRAV,13219729.14123,0.05086042227582,4.272459941596E-17,-0.9987057712089
415,GRAV,13111701.90738,0.1336299998049,4.280781897511E-17,-0.9910312927209
416,GRAV,13111701.90738,0.1336299998049,4.280781897511E-17,-0.9910312927209
417,GRAV,14324822.70078,0.133489813755,4.280605404406E-17,-0.9910501852195
418,GRAV,13949785.06058,0.1586276042641,4.277312158506E-17,-0.9873384845966
419,GRAV,14176531.53298,0.1027686301221,4.280973056713E-17,-0.9947052873403
420,GRAV,14078355.44379,0.1101171233747,4.281276942489E-17,-0.9939186179661
421,GRAV,13426347.81333,0.04739345277724,4.271436767871E-17,-0.9988762989649
422,GRAV,13426347.81333,0.04739345277724,4.271436767871E-17,-0.9988762989649
423,GRAV,13540913.65122,0.1406469125616,4.280051851471E-17,-0.9900598193983
424,GRAV,13540913.65122,0.1406469125616,4.280051851471E-17,-0.9900598193983
425,GRAV,14080952.50693,0.07854017369759,4.278382702793E-17,-0.9969109494411
426,GRAV,13861207.5758,0.04988003464249,4.272083747742E-17,-0.9987552163288
427,GRAV,13861207.5758,0.04988003464249,4.272083747742E-17,-0.9987552163288
428,GRAV,14077309.71501,0.1104330917428,4.281284310152E-17,-0.9938835607093
429,GRAV,13830056.87153,0.04158589330547,4.269601482856E-17,-0.9991349325682
430,GRAV,13739886.77945,0.1363076741812,4.280454276028E-17,-0.9906665523572
431,GRAV,13220852.08621,0.1771828476173,4.273167242102E-17,-0.984177950632
432,GRAV,13739886.77945,0.1363076741812,4.280454276028E-17,-0.9906665523572
433,GRAV,13740414.41488,0.0524848094734,4.272822648704E-17,-0.9986217225629
434,GRAV,13740414.41488,0.0524848094734,4.272822648704E-17,-0.9986217225629
435,GRAV,14568939.29486,0.1147704011216,4.281270050634E-17,-0.9933920449784
436,GRAV,14291886.40318,0.1504387263586,4.27865779228E-17,-0.9886193350383
437,GRAV,13804103.27362,0.1727744120475,4.274224975284E-17,-0.9849614218545
438,GRAV,14049495.83713,0.07151886233398,4.277161247416E-17,-0.9974392474384
439,GRAV,12937843.30076,0.02862125965769,4.265271615017E-17,-0.9995903278322
440,GRAV,12629750.13598,0.05018005728111,4.27237239872E-17,-0.9987401873617
441,GRAV,13043803.26491,0.163835794872,4.27641517667E-17,-0.9864876240068
442,GRAV,14179970.29549,0.1005289484586,4.280837895742E-17,-0.9949341337605
443,GRAV,13093614.12079,0.04828664650114,4.271751505262E-17,-0.9988335195465
444,GRAV,13093614.12079,0.04828664650114,4.271751505262E-17,-0.9988335195465
445,GRAV,13156492.26116,0.1428802372683,4.279859253728E-17,-0.9897399849446
446,GRAV,13156492.26116,0.1428802372683,4.279859253728E-17,-0.9897399849446
447,GRAV,12568205.74481,0.0584361373916,4.274557153187E-17,-0.9982911488372
448,GRAV,12936822.08478,0.1595421080947,4.277300890898E-17,-0.987191124223
449,GRAV,13048050.65836,0.02477914996926,4.263789153197E-17,-0.9996929497235
450,GRAV,14381733.8466,0.1262927484108,4.281046429674E-17,-0.9919930149446
451,GRAV,13563092.05825,0.1683135579024,4.275338524521E-17,-0.9857335066976
452,GRAV,12460054.49875,0.08994817420622,4.280191790882E-17,-0.9959464473339
453,GRAV,12635686.87993,0.1380270755226,4.28047698902E-17,-0.9904284559839
454,GRAV,14048218.42191,0.1543526239488,4.278062937483E-17,-0.9880158234968
455,GRAV,12577644.60714,0.1301779726216,4.281121579196E-17,-0.991490643145
456,GRAV,12464334.59678,0.09916806842809,4.281027261376E-17,-0.9950706980935
457,GRAV,13450674.51934,0.1474203483536,4.279224700831E-17,-0.9890739309532
458,GRAV,13450674.51934,0.1474203483536,4.279224700831E-17,-0.9890739309532
459,GRAV,13979672.28698,0.1225778068167,4.281247965133E-17,-0.9924589065931
460,GRAV,14260197.89667,0.1047471867361,4.281061985102E-17,-0.9944988822874
461,GRAV,13870207.94674,0.03219033461883,4.266424022365E-17,-0.9994817568906
462,GRAV,13524761.87804,0.04172947531803,4.269694407823E-17,-0.9991289460774
463,GRAV,13524761.87804,0.04172947531803,4.269694407823E-17,-0.9991289460774
464,GRAV,12936174.68026,0.01774774418201,4.260967403386E-17,-0.9998424963845
465,GRAV,12934406.31435,0.1705540993998,4.27491306872E-17,-0.9853483136323
466,GRAV,14107397.92857,0.1013268759888,4.280898886371E-17,-0.9948531872605
467,GRAV,13516342.4797,0.178345992487,4.272801249355E-17,-0.9839678383788
468,GRAV,13865767.01598,0.1378564147406,4.280289840074E-17,-0.9904522244484
469,GRAV,13865767.01598,0.1378564147406,4.280289840074E-17,-0.9904522244484
470,GRAV,14469704.27129,0.1339580477609,4.28054807102E-17,-0.9909870036686
471,GRAV,13866895.99103,0.05093680613734,4.272378686362E-17,-0.9987018783303
472,GRAV,14613851.14377,0.09636713421434,4.280469402868E-17,-0.9953458571991
473,GRAV,13866895.99103,0.05093680613734,4.272378686362E-17,-0.9987018783303
474,GRAV,14103832.67834,0.1193285646638,4.28130598579E-17,-0.9928548200292
475,GRAV,12495303.74302,0.1397343174914,4.280329241603E-17,-0.9901890327181
476,GRAV,14073367.20037,0.1641615255034,4.27618324977E-17,-0.9864334714234
477,GRAV,12688611.91805,0.03092350225548,4.26616253965E-17,-0.9995217541446
478,GRAV,12376129.30251,0.07109490079876,4.27735980351E-17,-0.9974695559667
479,GRAV,13225744.86901,0.01152005898699,4.258226441562E-17,-0.9999336419188
480,GRAV,12690105.30108,0.1570396497651,4.277812420754E-17,-0.9875922986747
481,GRAV,12384702.93761,0.1178921522911,4.281610785979E-17,-0.9930264046984
482,GRAV,14145642.77198,0.07156866747917,4.277156645514E-17,-0.9974356750364
483,GRAV,13987744.13721,0.04836876251113,4.271633509032E-17,-0.9988295464258
484,GRAV,13987744.13721,0.04836876251113,4.271633509032E-17,-0.9988295464258
485,GRAV,14009403.67486,0.06634541482738,4.276128627473E-17,-0.9977967157349
486,GRAV,14108071.58752,0.0696248057711,4.276785747234E-17,-0.9975732486496
487,GRAV,13979672.28698,0.1225778068167,4.281247965133E-17,-0.9924589065931
488,GRAV,14346140.8013,0.02856811742687,4.265031556647E-17,-0.9995918480393
489,GRAV,13980277.25051,0.06628357331419,4.276119837104E-17,-0.9978008257707
490,GRAV,14103832.67834,0.1193285646638,4.28130598579E-17,-0.9928548200292
491,GRAV,12300875.44487,0.1275315530913,4.281326655626E-17,-0.9918345139014
492,GRAV,13112664.96428,0.1839048256997,4.271264197309E-17,-0.9829440549107
493,GRAV,13291799.82969,0.1861975494788,4.270532882209E-17,-0.9825123269293
494,GRAV,12686634.2258,0.01983716572773,4.261877715511E-17,-0.9998032240676
495,GRAV,13928797.07778,0.1782264654661,4.272770612074E-17,-0.9839894953745
496,GRAV,13757967.3208,0.1826381035952,4.271537840502E-17,-0.9831802088708
497,GRAV,14179823.47127,0.08126921702161,4.278787817044E-17,-0.9966921863668
498,GRAV,12550167.00579,0.1589465322785,4.277483886614E-17,-0.9872871921972
499,GRAV,14655607.67923,0.1224178271905,4.281157029858E-17,-0.9924786524586
500,GRAV,12687339.14443,0.168269943794,4.275496337007E-17,-0.9857409527942
501,GRAV,13115091.21878,0.00447039787287,4.254998867279E-17,-0.9999900077215
502,GRAV,14698759.70775,0.1104696295103,4.28119793734E-17,-0.9938795002191
503,GRAV,14436862.83241,0.1507369457255,4.278591760481E-17,-0.9885739088168
504,GRAV,14316470.39299,0.1600938763673,4.276977772188E-17,-0.9871017935095
505,GRAV,14699214.97742,0.08032739606356,4.278574326384E-17,-0.9967685335331
506,GRAV,14079018.41461,0.0344195197521,4.267179443393E-17,-0.9994074727858
507,GRAV,14572913.9399,0.07610107068773,4.277911148732E-17,-0.9971001088357
508,GRAV,14192483.85721,0.09642369056467,4.280533056994E-17,-0.9953403799193
509,GRAV,13993097.31499,0.02649678262535,4.264300941216E-17,-0.9996488986192
510,GRAV,12490189.88501,0.04874727839754,4.271991259281E-17,-0.998811144736
511,GRAV,12329952.13602,0.09452799287286,4.280677552033E-17,-0.995522203953
512,GRAV,13023198.04581,0.05961914787088,4.274764058153E-17,-0.9982211965327
513,GRAV,13318249.48975,0.1408238464231,4.280068267307E-17,-0.9900346682206
514,GRAV,13318249.48975,0.1408238464231,4.280068267307E-17,-0.9900346682206
515,GRAV,13023198.04581,0.05961914787088,4.274764058153E-17,-0.9982211965327
516,GRAV,14109207.05369,0.08988280760575,4.279912256529E-17,-0.995952348708
517,GRAV,13924153.72538,0.1271928240009,4.281068951976E-17,-0.9918780093957
518,GRAV,12852409.40001,0.08176036589005,4.279071344276E-17,-0.996652016789
519,GRAV,12852409.40001,0.08176036589005,4.279071344276E-17,-0.996652016789
520,GRAV,13320800.39635,0.04810432151465,4.271660940589E-17,-0.9988423170109
521,GRAV,13024050.53803,0.1289085131947,4.281119750364E-17,-0.9916564905379
522,GRAV,13024050.53803,0.1289085131947,4.281119750364E-17,-0.9916564905379
523,GRAV,13320800.39635,0.04810432151465,4.271660940589E-17,-0.9988423170109
524,GRAV,14095771.14599,0.08543107053933,4.279378184826E-17,-0.9963440832295
525,GRAV,14466552.47032,0.03801420938429,4.26834784978E-17,-0.9992771987216
526,GRAV,13924153.72538,0.1271928240009,4.281068951976E-17,-0.9918780093957
527,GRAV,13924757.84238,0.06164191849848,4.275097636429E-17,-0.9980983287652
528,GRAV,13924757.84238,0.06164191849848,4.275097636429E-17,-0.9980983287652
529,GRAV,14045216.60611,0.05899398298268,4.274450634524E-17,-0.9982583382932
530,GRAV,12856688.28717,0.1072072959912,4.281386110678E-17,-0.9942366899719
531,GRAV,12856688.28717,0.1072072959912,4.281386110678E-17,-0.9942366899719
532,GRAV,12249250.9028,0.1134372164682,4.281639033896E-17,-0.9935451665224
533,GRAV,12549426.94957,0.02928241257844,4.265586563589E-17,-0.9995711782127
534,GRAV,13647266.03197,0.04949782448196,4.272008419978E-17,-0.9987742314315
535,GRAV,13647266.03197,0.04949782448196,4.272008419978E-17,-0.9987742314315
536,GRAV,13294219.28697,0.002134829119695,4.253847018444E-17,-0.9999977212497
537,GRAV,12296581.85001,0.06134266092224,4.275304055158E-17,-0.9981167656898
538,GRAV,12244967.32112,0.07551234198919,4.278188987738E-17,-0.997144867212
539,GRAV,14655726.41958,0.06833648575372,4.276450508001E-17,-0.9976623300069
540,GRAV,14092888.01794,0.08268957842364,4.27900612269E-17,-0.9965753527055
541,GRAV,13646739.88343,0.1392703803712,4.280181660558E-17,-0.9902543921393
542,GRAV,13646739.88343,0.1392703803712,4.280181660558E-17,-0.9902543921393
543,GRAV,14178356.97913,0.06322801005547,4.275422837157E-17,-0.997999107587
544,GRAV,14486563.92967,0.09226201959276,4.280110188488E-17,-0.9957347637502
545,GRAV,14235725.08112,0.07246075628085,4.277310965225E-17,-0.9973712642738
546,GRAV,14572913.9399,0.07610107068773,4.277911148732E-17,-0.9971001088357
547,GRAV,14415101.22128,0.06462797050737,4.275700223494E-17,-0.9979094274673
548,GRAV,14415101.22128,0.06462797050737,4.275700223494E-17,-0.9979094274673
549,GRAV,14050867.78466,0.0598440109561,4.274655027371E-17,-0.9982077410803
550,GRAV,14172665.22179,0.06238715637535,4.275232829755E-17,-0.9980520240546
551,GRAV,14079018.41461,0.0344195197521,4.267179443393E-17,-0.9994074727858
552,GRAV,14089240.93207,0.1062935193799,4.281153797642E-17,-0.9943347966042
553,GRAV,13993097.31499,0.02649678262535,4.264300941216E-17,-0.9996488986192
554,GRAV,14116432.77009,0.02090170267438,4.262080137555E-17,-0.9997815355493
555,GRAV,14096848.12119,0.08574687188451,4.279418860848E-17,-0.9963169545692
556,GRAV,14093952.69712,0.08300572627566,4.279050568645E-17,-0.9965490702446
557,GRAV,14275880.41102,0.09222954842843,4.280136490967E-17,-0.9957377719042
558,GRAV,14275880.41102,0.09222954842843,4.280136490967E-17,-0.9957377719042
559,GRAV,14499217.79189,0.05683928845227,4.273851878225E-17,-0.9983833408507
560,GRAV,13818462.70956,0.01197154441512,4.258332993974E-17,-0.9999283384945
561,GRAV,14322176.28368,0.03833012413425,4.268472983403E-17,-0.9992651307755
562,GRAV,14090305.28661,0.1059779856968,4.281140786719E-17,-0.9943684762439
563,GRAV,14486563.92967,0.09226201959276,4.280110188488E-17,-0.9957347637502
564,GRAV,13818462.70956,0.01197154441512,4.258332993974E-17,-0.9999283384945
565,GRAV,14322176.28368,0.03833012413425,4.268472983403E-17,-0.9992651307755
566,GRAV,14358761.53178,0.05547530174442,4.273523145587E-17,-0.9984600597402
567,GRAV,14358761.53178,0.05547530174442,4.273523145587E-17,-0.9984600597402
568,GRAV,13532911.73429,0.00641826797227,4.25584857364E-17,-0.999979402706
569,GRAV,13579690.16655,0.01664180994914,4.260395087332E-17,-0.9998615154918
570,GRAV,13464962.01952,0.01565829359417,4.259994528948E-17,-0.9998774014057
571,GRAV,13513020.50801,0.02589880606581,4.264145582627E-17,-0.9996645696654
572,GRAV,13579690.16655,0.01664180994914,4.260395087332E-17,-0.9998615154918
573,GRAV,13627878.32847,0.02679238712612,4.264469203775E-17,-0.9996410195626
574,GRAV,13395507.26679,0.1538017714396,4.278256377521E-17,-0.9881017230539
575,GRAV,13602198.9526,0.1460423002926,4.279388181124E-17,-0.989278346334
576,GRAV,13512465.00628,0.1528153336969,4.278400388881E-17,-0.9882547615808
577,GRAV,13172103.30191,0.150508965112,4.2788197408E-17,-0.9886086442172
578,GRAV,13065896.5009,0.1461396565921,4.279462799763E-17,-0.989263969207
579,GRAV,13020705.59362,0.1368404809041,4.280522176049E-17,-0.990593096476
580,GRAV,13002114.61747,0.04471299486391,4.270707235066E-17,-0.9989998739191
581,GRAV,13111506.59421,0.04075700315744,4.269451846966E-17,-0.9991690881396
582,GRAV,13237363.69096,0.04339988075369,4.270264437066E-17,-0.9990577812872
583,GRAV,12832141.37331,0.06900436494612,4.276866795324E-17,-0.9976163579344
584,GRAV,12955081.45252,0.06600920380814,4.276225795601E-17,-0.9978190141567
585,GRAV,12832141.37331,0.06900436494612,4.276866795324E-17,-0.9976163579344
586,GRAV,12955081.45252,0.06600920380814,4.276225795601E-17,-0.9978190141567
587,GRAV,12837460.79911,0.09001751882928,4.280130958532E-17,-0.9959401820912
588,GRAV,12756160.26705,0.09736245977374,4.280839056347E-17,-0.9952489896638
589,GRAV,12756160.26705,0.09736245977374,4.280839056347E-17,-0.9952489896638
590,GRAV,12837460.79911,0.09001751882928,4.280130958532E-17,-0.9959401820912
591,GRAV,12837316.63018,0.1196279705516,4.281503925316E-17,-0.9928187894383
592,GRAV,12955957.56055,0.1225555700041,4.281412709588E-17,-0.9924616527912
593,GRAV,12955957.56055,0.1225555700041,4.281412709588E-17,-0.9924616527912
594,GRAV,12837316.63018,0.1196279705516,4.281503925316E-17,-0.9928187894383
595,GRAV,14188913.39609,0.09866131783742,4.280707757176E-17,-0.9951210702033
596,GRAV,14109057.89903,0.09438467081733,4.280367630406E-17,-0.9955358024274
597,GRAV,14148093.04842,0.07430447695904,4.27765856539E-17,-0.9972356014021
598,GRAV,14244241.57016,0.0743351265074,4.277650161949E-17,-0.9972333172168
599,GRAV,14192995.34237,0.08570012500326,4.279398894321E-17,-0.9963209766809
600,GRAV,14109207.05369,0.08988280760575,4.279912256529E-17,-0.995952348708
601,GRAV,14108111.53533,0.08956771635722,4.279877279102E-17,-0.9959807348471
602,GRAV,14191918.57202,0.08538645836491,4.279358430585E-17,-0.996347907474
603,GRAV,10311529.03298,0.1113987746314,4.282056722299E-17,-0.9937757860859
604,GRAV,5675664.275851,0.1098484820308,4.284322976659E-17,-0.993948344229
605,GRAV,5675664.275851,0.1098484820308,4.284322976659E-17,-0.993948344229
606,GRAV,5681092.733616,0.1405096007054,4.283032617163E-17,-0.99007931607
607,GRAV,7996847.428007,0.1271958901249,4.28261396856E-17,-0.9918776162084
608,GRAV,10313397.21132,0.06901016885,4.277420405034E-17,-0.9976159564659
609,GRAV,7992509.799854,0.09446202709493,4.28194915428E-17,-0.9955284654078
610,GRAV,10310407.96317,0.08598246087725,4.280205249774E-17,-0.9962966508131
611,GRAV,7996847.427592,0.0616256883984,4.276639133879E-17,-0.9980993309934
612,GRAV,5677700.555369,0.06363238993801,4.278578749683E-17,-0.9979734059336
613,GRAV,10310407.96317,0.08598246087725,4.280205249774E-17,-0.9962966508131
614,GRAV,7992509.799854,0.09446202709493,4.28194915428E-17,-0.9955284654078
615,GRAV,2106845.571773,0.197725509176,4.278241897041E-17,-0.9802574269145
616,GRAV,1987746.920953,0.3571107389169,4.161516022653E-17,-0.9340620536936
617,GRAV,2108270.6881,-0.1355097355406,4.158176034277E-17,-0.9907760148357
618,GRAV,1986021.654416,-0.2426058395785,4.018290422865E-17,-0.97012494381
619,GRAV,4797450.473041,-0.02728377061076,4.241595512301E-17,-0.9996277286376
620,GRAV,2000595.755963,-0.02359979548694,4.252274335971E-17,-0.9997214860415
621,GRAV,2128233.103568,0.4514383895243,4.029687267664E-17,-0.892302292087
622,GRAV,1732436.66949,-0.2536728490161,4.002907812387E-17,-0.9672900731797
623,GRAV,2336731.182717,-0.2535091288822,3.998838195181E-17,-0.9673329941511
624,GRAV,3812774.546666,-0.1960345287186,4.078827491351E-17,-0.9805969934433
625,GRAV,2677533.294533,-0.2085458002926,4.064883967622E-17,-0.9780126017492
626,GRAV,4591399.698846,0.2671707759401,4.23452812745E-17,-0.9636491978327
627,GRAV,3746550.20169,-0.286850148708,3.937903117229E-17,-0.9579754653362
628,GRAV,2337897.79523,0.3928391658008,4.115552602203E-17,-0.9196071932151
629,GRAV,1749124.97574,-0.002781588256388,4.26582124116E-17,-0.9999961313759
630,GRAV,3061705.113682,-0.007366240008552,4.256340925511E-17,-0.999972868886
631,GRAV,3497543.91949,-0.02742000476147,4.243761079279E-17,-0.9996240009818
632,GRAV,2825339.119914,-0.03940720685509,4.238105122444E-17,-0.9992232343415
633,GRAV,3701363.488464,-0.06971418948302,4.213648350972E-17,-0.9975670061629
634,GRAV,3784915.086973,0.06441443070431,4.281308865919E-17,-0.9979232340802
635,GRAV,3471250.063439,-0.09991300473128,4.188308912741E-17,-0.9949961766186
636,GRAV,4029282.13167,0.08254289676288,4.28412966255E-17,-0.9965875125617
637,GRAV,3031633.509729,-0.09020668458476,4.198260626432E-17,-0.9959230663341
638,GRAV,3974023.203326,0.02055052569111,4.267185431966E-17,-0.9997888156475
639,GRAV,4964612.343092,0.008743647190299,4.260625318259E-17,-0.9999617735863
640,GRAV,4103298.237455,-0.2983918048142,3.916509604678E-17,-0.9544434665394
641,GRAV,2806569.758597,-0.326609539301,3.866362727639E-17,-0.9451593563191
642,GRAV,2483538.179054,-0.3827792247097,3.749313994561E-17,-0.9238398482046
643,GRAV,4667826.096823,0.3395482006973,4.172189841637E-17,-0.9405886557913
644,GRAV,4767752.704678,0.0706155494855,4.281010357156E-17,-0.9975036060942
645,GRAV,4163852.513649,-0.2154561293162,4.0512253553E-17,-0.9765135208179
646,GRAV,1599660.869768,-0.1256482525693,4.172950495714E-17,-0.9920748543463
647,GRAV,4907803.632119,-0.05654807897167,4.221770697783E-17,-0.9983998771858
648,GRAV,3858067.782256,-0.1513202939268,4.134374899583E-17,-0.9884847842258
649,GRAV,2281144.359928,-0.1811593460481,4.103437203289E-17,-0.9834537565841
650,GRAV,4563360.402222,0.2295579708333,4.256970024192E-17,-0.9732949902403
651,GRAV,3637880.198917,-0.1848849831372,4.093901174596E-17,-0.9827601655594
652,GRAV,2629161.751183,-0.1442498763994,4.145878390365E-17,-0.9895412943171
653,GRAV,2849693.335901,-0.1899822466776,4.089453466135E-17,-0.9817875258666
654,GRAV,3568411.553023,-0.280195382597,3.949943522146E-17,-0.9599429918341
655,GRAV,2194861.672747,0.1163077174957,4.292502801939E-17,-0.9932132272835
656,GRAV,1853943.282233,-0.1312569270717,4.1646005076E-17,-0.9913483843209
657,GRAV,4781315.160525,0.172771581689,4.278193873983E-17,-0.9849619183302
658,GRAV,3296227.825699,-0.3401268677445,3.83782562729E-17,-0.9403795583903
659,GRAV,4654974.830012,-0.05052198363115,4.226444775369E-17,-0.9987229491556
660,GRAV,4237544.186123,0.281458647972,4.224795807758E-17,-0.9595733580513
661,GRAV,3582565.422272,0.5435996106919,3.844616656944E-17,-0.8393446629696
662,GRAV,4768665.2253,0.2608035881855,4.238552371027E-17,-0.9653918833249
663,GRAV,2168642.031911,-0.2809960606763,3.953803186946E-17,-0.9597089214363
664,GRAV,2971262.589408,-0.3027855153754,3.911146351314E-17,-0.9530587241502
665,GRAV,4922276.553071,0.0895852754797,4.283718890824E-17,-0.9959791556138
666,GRAV,4676605.87656,0.1033467046299,4.28516365724E-17,-0.9946453934152
667,GRAV,4205366.217608,-0.1744190629576,4.106123687233E-17,-0.9846715139969
668,GRAV,3726052.113517,-0.3323437126846,3.85246967036E-17,-0.9431583412339
669,GRAV,3933078.689502,0.1895827456373,4.274650523156E-17,-0.9818647475883
670,GRAV,2686360.851364,0.1123142166299,4.290061764979E-17,-0.9936727412699
671,GRAV,3682332.91499,0.1783810436199,4.278526863526E-17,-0.9839614846512
672,GRAV,2933944.730968,0.1330979342985,4.288502923397E-17,-0.9911028906655
673,GRAV,1853943.282233,-0.1312569270717,4.1646005076E-17,-0.9913483843209
674,GRAV,3466269.063389,-0.3922411023389,3.724415515951E-17,-0.9198624449536
675,GRAV,4977638.449574,0.2053593567896,4.26739352406E-17,-0.9786866375807
676,GRAV,5021866.048044,0.1560629196674,4.28148033787E-17,-0.9877471159689
677,GRAV,4320234.94789,0.3589984360128,4.151488190717E-17,-0.9333381610865
678,GRAV,4207147.215793,0.2409141727835,4.251440529178E-17,-0.9705464241097
679,GRAV,5113190.425666,0.02888506595912,4.268803149187E-17,-0.9995827394291
680,GRAV,5069759.585336,-0.02036102671961,4.245394648336E-17,-0.9997926928073
681,GRAV,4084590.84418,-0.3398191227179,3.836750997862E-17,-0.9404908100748
682,GRAV,4842294.632362,0.3308243829403,4.180844886346E-17,-0.9436923373919
683,GRAV,2326082.012551,-0.41599737022,3.672156990366E-17,-0.9093658163633
684,GRAV,2885791.060863,-0.3797172071148,3.754566339475E-17,-0.9251026119415
685,GRAV,4715883.44977,0.3740728618955,4.13313423849E-17,-0.9273993174428
686,GRAV,4339931.838761,-0.2239605652529,4.038596261434E-17,-0.9745982070636
687,GRAV,3219395.370354,-0.4091653064286,3.685225765255E-17,-0.9124602742121
688,GRAV,4634204.912556,-0.1835677097703,4.093886509606E-17,-0.9830070680975
689,GRAV,3536187.975922,0.4832898103164,3.968417248151E-17,-0.8754604270008
690,GRAV,3334592.318635,0.5573981832823,3.813363944231E-17,-0.8302453042768
691,GRAV,4372114.619563,0.3957100410487,4.105959851611E-17,-0.9183755024026
692,GRAV,4281868.404701,-0.303427496154,3.906970741876E-17,-0.9528545295992
693,GRAV,2572725.815921,-0.4391369176615,3.612993528478E-17,-0.898420150902
694,GRAV,3776353.715295,0.2403849877042,4.252523647807E-17,-0.9706776280962
695,GRAV,2767451.661685,0.1996916063046,4.274230809046E-17,-0.9798587971598
696,GRAV,3271207.793951,0.2232226903791,4.262609162778E-17,-0.9747674750934
697,GRAV,3254030.658886,0.4246243320485,4.067254682754E-17,-0.9053696353602
698,GRAV,3033742.912546,0.5047997550914,3.928452917397E-17,-0.8632364723873
699,GRAV,3000492.503024,0.4309142999892,4.058465349419E-17,-0.9023928557257
700,GRAV,4024991.769852,0.4953844494766,3.944553355666E-17,-0.868673843981
701,GRAV,4225053.066712,0.4619042639324,4.00525674823E-17,-0.8869297891948
702,GRAV,4654974.830012,-0.05052198363115,4.226444775369E-17,-0.9987229491556
703,GRAV,4147225.141728,0.3698763283055,4.139051450661E-17,-0.9290809984922
704,GRAV,4061013.063333,0.2895081245961,4.218881475467E-17,-0.9571755564121
705,GRAV,3991887.216106,0.4397520982741,4.042266872292E-17,-0.8981191970243
706,GRAV,2439964.455169,0.2562124050596,4.247314204977E-17,-0.966620506452
707,GRAV,3376695.44339,0.2905586761049,4.219496171407E-17,-0.9568571762495
708,GRAV,3122748.380289,0.2857555526542,4.22396405621E-17,-0.958302543108
709,GRAV,2351906.502455,0.5480091437264,3.838827451379E-17,-0.836472341678
710,GRAV,1773205.196539,0.4242002439373,4.075339481215E-17,-0.9055684143363
711,GRAV,2596097.994226,0.5720105786976,3.780563030367E-17,-0.820246242209
712,GRAV,2544470.395654,0.489892893021,3.959248563741E-17,-0.8717826296546
713,GRAV,4627414.30159,-0.1248952657229,4.161853922457E-17,-0.9921699313122
714,GRAV,4881670.712161,-0.1270651956232,4.159282973779E-17,-0.9918943673906
715,GRAV,4373182.605409,-0.1224723232328,4.164700285921E-17,-0.9924719290952
716,GRAV,4627414.30159,-0.1248952657229,4.161853922457E-17,-0.9921699313122
717,GRAV,4589965.506253,0.03537632686849,4.271772856461E-17,-0.9993740618494
718,GRAV,4440838.093801,0.01308088583618,4.263258266716E-17,-0.9999144415527
719,GRAV,4493444.236449,0.06876917414516,4.28101738485E-17,-0.9976325980477
720,GRAV,4341002.272844,0.04716063535518,4.275893303039E-17,-0.9988873182061
721,GRAV,4440838.093801,0.01308088583618,4.263258266716E-17,-0.9999144415527
722,GRAV,4294072.310134,-0.01075806937655,4.251812277193E-17,-0.9999421302972
723,GRAV,1987746.920953,0.3571107389169,4.161516022653E-17,-0.9340620536936
724,GRAV,2106845.571773,0.197725509176,4.278241897041E-17,-0.9802574269145
725,GRAV,1641806.064295,0.3053184750245,4.216295771313E-17,-0.9522502973529
726,GRAV,1784148.983213,0.1165850315789,4.29554615312E-17,-0.9931807138742

***********************************************************
** MbDAssembly gravity
*DLOAD
Eall,GRAV,9810,0,0,-1

***********************************************************
** Outputs --> frd file
*NODE FILE
U
*EL FILE
S, E
*OUTPUT, FREQUENCY=1
***********************************************************
*END STEP

***********************************************************
** CalculiX Input file
**   written by    --> FreeCAD 26.3.0
**   written on    --> Sat Sep  5 11:49:49 2026
**   file name     --> RealisticPendulum.FCStd
**   analysis name --> FEMPart002
**
**
***********************************************************
**  About units:
**  See ccx manual, ccx does not know about any unit.
**  Golden rule: The user must make sure that the numbers they provide have consistent units.
**  The user is the FreeCAD calculix writer module ;-)
**
**  The unit system which is used at Guido Dhondt's company: mm, N, s, K
**  Since Length and Mass are connected by Force, if Length is mm the Mass is in t to get N
**  The following units are used to write to inp file:
**
**  Length: mm (this includes the mesh geometry)
**  Mass: t
**  TimeSpan: s
**  Temperature: K
**
**  This leads to:
**  Force: N
**  Pressure: N/mm^2 == MPa (Young's Modulus has unit Pressure)
**  Density: t/mm^3
**  Gravity: mm/s^2
**  Thermal conductivity: t*mm/K/s^3 == as W/m/K == kW/mm/K
**  Specific Heat: mm^2/s^2/K = J/kg/K == kJ/t/K
**
