** written by FreeCAD inp file writer for CalculiX,Abaqus meshes
** highest dimension mesh elements only.

** Nodes
*Node, NSET=Nall
1, -5e-15, 5, 212
2, -5e-15, -5, 212
3, -2e-15, 5, 200
4, -2e-15, -5, 200
5, -5, -3, 180
6, -5, -3, 48
7, -5, 3, 180
8, -5, 3, 48
9, 5, -3, 180
10, 5, -3, 48
11, 5, 3, 180
12, 5, 3, 48
13, -7e-15, 5, 76
14, -7e-15, -5, 76
15, 10, 5, 209.3205080757
16, 17.32050807569, 5, 202
17, 20, 5, 192
18, 17.32050807569, 5, 182
19, 10, 5, 174.6794919243
20, -1.130139009627e-13, 5, 172
21, -10, 5, 174.6794919243
22, -17.32050807569, 5, 182
23, -20, 5, 192
24, -17.32050807569, 5, 202
25, -10, 5, 209.3205080757
26, 5.17638090205, 5, 211.3185165258
27, 14.14213562373, 5, 206.1421356237
28, 19.31851652578, 5, 197.1763809021
29, 19.31851652578, 5, 186.8236190979
30, 14.14213562373, 5, 177.8578643763
31, 5.17638090205, 5, 172.6814834742
32, -5.176380902051, 5, 172.6814834742
33, -14.14213562373, 5, 177.8578643763
34, -19.31851652578, 5, 186.8236190979
35, -19.31851652578, 5, 197.1763809021
36, -14.14213562373, 5, 206.1421356237
37, -5.17638090205, 5, 211.3185165258
38, -4.9e-15, 0, 212
39, 10, -5, 209.3205080757
40, 17.32050807569, -5, 202
41, 20, -5, 192
42, 17.32050807569, -5, 182
43, 10, -5, 174.6794919243
44, -1.130139009627e-13, -5, 172
45, -10, -5, 174.6794919243
46, -17.32050807569, -5, 182
47, -20, -5, 192
48, -17.32050807569, -5, 202
49, -10, -5, 209.3205080757
50, 5.17638090205, -5, 211.3185165258
51, 14.14213562373, -5, 206.1421356237
52, 19.31851652578, -5, 197.1763809021
53, 19.31851652578, -5, 186.8236190979
54, 14.14213562373, -5, 177.8578643763
55, 5.17638090205, -5, 172.6814834742
56, -5.176380902051, -5, 172.6814834742
57, -14.14213562373, -5, 177.8578643763
58, -19.31851652578, -5, 186.8236190979
59, -19.31851652578, -5, 197.1763809021
60, -14.14213562373, -5, 206.1421356237
61, -5.17638090205, -5, 211.3185165258
62, 4, 5, 198.9282032303
63, 6.928203230276, 5, 196
64, 8, 5, 192
65, 6.928203230275, 5, 188
66, 4, 5, 185.0717967697
67, -4.520556038509e-14, 5, 184
68, -4, 5, 185.0717967697
69, -6.928203230276, 5, 188
70, -8, 5, 192
71, -6.928203230275, 5, 196
72, -4, 5, 198.9282032303
73, 2.07055236082, 5, 199.7274066103
74, 5.656854249492, 5, 197.6568542495
75, 7.727406610313, 5, 194.0705523608
76, 7.727406610313, 5, 189.9294476392
77, 5.656854249492, 5, 186.3431457505
78, 2.07055236082, 5, 184.2725933897
79, -2.07055236082, 5, 184.2725933897
80, -5.656854249492, 5, 186.3431457505
81, -7.727406610313, 5, 189.9294476392
82, -7.727406610313, 5, 194.0705523608
83, -5.656854249492, 5, 197.6568542495
84, -2.07055236082, 5, 199.7274066103
85, 4, -5, 198.9282032303
86, 6.928203230276, -5, 196
87, 8, -5, 192
88, 6.928203230275, -5, 188
89, 4, -5, 185.0717967697
90, -4.520556038509e-14, -5, 184
91, -4, -5, 185.0717967697
92, -6.928203230276, -5, 188
93, -8, -5, 192
94, -6.928203230275, -5, 196
95, -4, -5, 198.9282032303
96, 2.07055236082, -5, 199.7274066103
97, 5.656854249492, -5, 197.6568542495
98, 7.727406610313, -5, 194.0705523608
99, 7.727406610313, -5, 189.9294476392
100, 5.656854249492, -5, 186.3431457505
101, 2.07055236082, -5, 184.2725933897
102, -2.07055236082, -5, 184.2725933897
103, -5.656854249492, -5, 186.3431457505
104, -7.727406610313, -5, 189.9294476392
105, -7.727406610313, -5, 194.0705523608
106, -5.656854249492, -5, 197.6568542495
107, -2.07055236082, -5, 199.7274066103
108, -1.96e-15, -1.666666666667, 200
109, -1.96e-15, 1.666666666667, 200
110, -1.96e-15, -3.333333333333, 200
111, -1.96e-15, 8.881784197001e-16, 200
112, -1.96e-15, 3.333333333333, 200
113, -5, -3, 114
114, -5, 0, 180
115, -5, 3, 114
116, -5, 0, 48
117, 5, -3, 114
118, 5, 0, 180
119, 5, 3, 114
120, 5, 0, 48
121, 0, -3, 48
122, 0, -3, 180
123, 0, 3, 48
124, 0, 3, 180
125, 14, 5, 72.24871130596
126, 24.24871130596, 5, 62
127, 28, 5, 48
128, 24.24871130596, 5, 34
129, 14, 5, 23.75128869404
130, -1.706539592236e-13, 5, 20
131, -14, 5, 23.75128869404
132, -24.24871130596, 5, 34
133, -28, 5, 48
134, -24.24871130596, 5, 62
135, -14, 5, 72.24871130596
136, 7.246933262871, 5, 75.04592313609
137, 19.79898987322, 5, 67.79898987322
138, 27.04592313609, 5, 55.24693326287
139, 27.04592313609, 5, 40.75306673713
140, 19.79898987322, 5, 28.20101012678
141, 7.24693326287, 5, 20.95407686391
142, -7.246933262871, 5, 20.95407686391
143, -19.79898987322, 5, 28.20101012678
144, -27.04592313609, 5, 40.75306673713
145, -27.04592313609, 5, 55.24693326287
146, -19.79898987322, 5, 67.79898987322
147, -7.24693326287, 5, 75.04592313609
148, -6.86e-15, 0, 76
149, 14, -5, 72.24871130596
150, 24.24871130596, -5, 62
151, 28, -5, 48
152, 24.24871130596, -5, 34
153, 14, -5, 23.75128869404
154, -1.706539592236e-13, -5, 20
155, -14, -5, 23.75128869404
156, -24.24871130596, -5, 34
157, -28, -5, 48
158, -24.24871130596, -5, 62
159, -14, -5, 72.24871130596
160, 7.246933262871, -5, 75.04592313609
161, 19.79898987322, -5, 67.79898987322
162, 27.04592313609, -5, 55.24693326287
163, 27.04592313609, -5, 40.75306673713
164, 19.79898987322, -5, 28.20101012678
165, 7.24693326287, -5, 20.95407686391
166, -7.246933262871, -5, 20.95407686391
167, -19.79898987322, -5, 28.20101012678
168, -27.04592313609, -5, 40.75306673713
169, -27.04592313609, -5, 55.24693326287
170, -19.79898987322, -5, 67.79898987322
171, -7.24693326287, -5, 75.04592313609
172, 5.17638090205, 0, 211.3185165258
173, -5.17638090205, 0, 211.3185165258
174, 10, 0, 209.3205080757
175, -10, 0, 209.3205080757
176, 14.14213562373, 0, 206.1421356237
177, 19.31851652578, 0, 197.1763809021
178, 20, 0, 192
179, 17.32050807569, 0, 202
180, 19.31851652578, 0, 186.8236190979
181, 17.32050807569, 0, 182
182, 14.14213562373, 0, 177.8578643763
183, 10, 0, 174.6794919243
184, 5.17638090205, 0, 172.6814834742
185, -5.176380902051, 0, 172.6814834742
186, -1.130139009627e-13, 0, 172
187, -14.14213562373, 0, 177.8578643763
188, -17.32050807569, 0, 182
189, -10, 0, 174.6794919243
190, -19.31851652578, 0, 186.8236190979
191, -19.31851652578, 0, 197.1763809021
192, -17.32050807569, 0, 202
193, -20, 0, 192
194, -14.14213562373, 0, 206.1421356237
195, 3.416237101988, 5, 204.7495704353
196, 9.333333333333, 5, 182.6666666667
197, -3.472079033996, 5, 204.5411655079
198, -9.286798389993, 5, 201.0901942513
199, -12.74957043532, 5, 188.583762898
200, -12.38084668855, 5, 195.2789928582
201, -9.124928405887, 5, 182.7225085987
202, 3.26367410655, 5, 179.4029925601
203, 12.59700743988, 5, 188.7363258935
204, -3.31020904989, 5, 179.6461316421
205, 9.277491401325, 5, 201.1249284059
206, 12.35386835786, 5, 195.3102090499
207, 6.708118550994, 5, 207.0350392555
208, 1.708118550994, 5, 208.3747852177
209, -1.736039516998, 5, 208.2705827539
210, -6.736039516998, 5, 206.9308367918
211, -0.02792096600395, 5, 204.6453679716
212, 1.708118550994, 5, 202.3747852177
213, 3.708118550994, 5, 201.8388868328
214, -3.736039516998, 5, 201.7346843691
215, -1.736039516998, 5, 202.2705827539
216, 13.29899973851, 5, 201.5624642029
217, 9.638745700663, 5, 205.2227182408
218, 6.346864251657, 5, 202.9372494206
219, 16.17693417893, 5, 193.6551045249
220, 14.83718821678, 5, 198.6551045249
221, 10.81567987959, 5, 198.2175687279
222, 14.95875775779, 5, 185.3681629467
223, 16.29850371994, 5, 190.3681629467
224, 12.47543789887, 5, 192.0232674717
225, 9.666666666667, 5, 178.6730792955
226, 13.32692070451, 5, 182.3333333333
227, 10.96517038661, 5, 185.7014962801
228, 1.631837053275, 5, 175.7014962801
229, 6.631837053275, 5, 177.0412422422
230, 6.298503719941, 5, 181.0348296134
231, -6.655104524945, 5, 177.1628117832
232, -1.655104524945, 5, 175.8230658211
233, -0.02326747167005, 5, 179.5245621011
234, -13.22271824079, 5, 182.3612542993
235, -9.562464202944, 5, 178.7010002615
236, -6.217568727888, 5, 181.1843201204
237, -16.37478521766, 5, 190.291881449
238, -15.03503925551, 5, 185.291881449
239, -10.9372494206, 5, 185.6531357483
240, -14.85067738212, 5, 198.6394964291
241, -16.19042334427, 5, 193.6394964291
242, -12.56520856193, 5, 191.9313778781
243, -9.643399194997, 5, 205.2053511635
244, -13.30365323284, 5, 201.5450971257
245, -10.83382253927, 5, 198.1845935548
246, -6.379438711995, 5, 202.8156798796
247, 6.638745700663, 5, 200.0265658181
248, 8.1028473158, 5, 198.5624642029
249, 9.641035794069, 5, 195.6551045249
250, 10.17693417893, 5, 193.6551045249
251, 10.29850371994, 5, 190.3681629467
252, 9.762605335079, 5, 188.3681629467
253, 8.130768281804, 5, 185.3333333333
254, 6.666666666667, 5, 183.8692317182
255, 3.631837053275, 5, 182.2373946649
256, 1.631837053275, 5, 181.7014962801
257, -1.655104524945, 5, 181.8230658211
258, -3.655104524945, 5, 182.3589642059
259, -6.562464202943, 5, 183.8971526842
260, -8.026565818081, 5, 185.3612542993
261, -9.838886832798, 5, 188.291881449
262, -10.37478521766, 5, 190.291881449
263, -10.19042334427, 5, 193.6394964291
264, -9.654524959411, 5, 195.6394964291
265, -8.107500810134, 5, 198.5450971257
266, -6.643399194997, 5, 200.0091987408
267, 3.416237101988, -5, 204.7495704353
268, 9.333333333333, -5, 182.6666666667
269, -3.472079033996, -5, 204.5411655079
270, -9.286798389993, -5, 201.0901942513
271, -12.74957043532, -5, 188.583762898
272, -12.38084668855, -5, 195.2789928582
273, -9.124928405887, -5, 182.7225085987
274, 3.26367410655, -5, 179.4029925601
275, 12.59700743988, -5, 188.7363258935
276, -3.31020904989, -5, 179.6461316421
277, 9.277491401325, -5, 201.1249284059
278, 12.35386835786, -5, 195.3102090499
279, 1.708118550994, -5, 208.3747852177
280, 6.708118550994, -5, 207.0350392555
281, -6.736039516998, -5, 206.9308367918
282, -1.736039516998, -5, 208.2705827539
283, -0.02792096600395, -5, 204.6453679716
284, 3.708118550994, -5, 201.8388868328
285, 1.708118550994, -5, 202.3747852177
286, -1.736039516998, -5, 202.2705827539
287, -3.736039516998, -5, 201.7346843691
288, 9.638745700663, -5, 205.2227182408
289, 13.29899973851, -5, 201.5624642029
290, 6.346864251657, -5, 202.9372494206
291, 14.83718821678, -5, 198.6551045249
292, 16.17693417893, -5, 193.6551045249
293, 10.81567987959, -5, 198.2175687279
294, 16.29850371994, -5, 190.3681629467
295, 14.95875775779, -5, 185.3681629467
296, 12.47543789887, -5, 192.0232674717
297, 13.32692070451, -5, 182.3333333333
298, 9.666666666667, -5, 178.6730792955
299, 10.96517038661, -5, 185.7014962801
300, 6.631837053275, -5, 177.0412422422
301, 1.631837053275, -5, 175.7014962801
302, 6.298503719941, -5, 181.0348296134
303, -1.655104524945, -5, 175.8230658211
304, -6.655104524945, -5, 177.1628117832
305, -0.02326747167005, -5, 179.5245621011
306, -9.562464202944, -5, 178.7010002615
307, -13.22271824079, -5, 182.3612542993
308, -6.217568727888, -5, 181.1843201204
309, -15.03503925551, -5, 185.291881449
310, -16.37478521766, -5, 190.291881449
311, -10.9372494206, -5, 185.6531357483
312, -16.19042334427, -5, 193.6394964291
313, -14.85067738212, -5, 198.6394964291
314, -12.56520856193, -5, 191.9313778781
315, -13.30365323284, -5, 201.5450971257
316, -9.643399194997, -5, 205.2053511635
317, -10.83382253927, -5, 198.1845935548
318, -6.379438711995, -5, 202.8156798796
319, 8.1028473158, -5, 198.5624642029
320, 6.638745700663, -5, 200.0265658181
321, 10.17693417893, -5, 193.6551045249
322, 9.641035794069, -5, 195.6551045249
323, 9.762605335079, -5, 188.3681629467
324, 10.29850371994, -5, 190.3681629467
325, 6.666666666667, -5, 183.8692317182
326, 8.130768281804, -5, 185.3333333333
327, 1.631837053275, -5, 181.7014962801
328, 3.631837053275, -5, 182.2373946649
329, -3.655104524945, -5, 182.3589642059
330, -1.655104524945, -5, 181.8230658211
331, -8.026565818081, -5, 185.3612542993
332, -6.562464202943, -5, 183.8971526842
333, -10.37478521766, -5, 190.291881449
334, -9.838886832798, -5, 188.291881449
335, -9.654524959411, -5, 195.6394964291
336, -10.19042334427, -5, 193.6394964291
337, -6.643399194997, -5, 200.0091987408
338, -8.107500810134, -5, 198.5450971257
339, -7.751173309934, 0.0004090689846006, 193.9797253141
340, -5.900629000126, 0.008584387974766, 197.4020900958
341, 5.900629000126, 0.008584387974766, 197.4020900958
342, 7.751173309934, 0.0004090689846006, 193.9797253141
343, -7.727406610313, 0, 189.9294476392
344, -5.656854249492, 0, 186.3431457505
345, -2.07055236082, 3.333333333333, 199.7274066103
346, -3.330387815149, 0.3820363689807, 199.2738240975
347, 3.330387815149, 0.3820363689807, 199.2738240975
348, 2.07055236082, 3.333333333333, 199.7274066103
349, 1.816621978181, -2.083765626184, 199.7910130656
350, -1.816621978181, -2.083765626184, 199.7910130656
351, -2.07055236082, 0, 184.2725933897
352, 2.07055236082, 0, 184.2725933897
353, 5.656854249492, -8.881784197001e-16, 186.3431457505
354, 7.727406610313, 0, 189.9294476392
355, 1.04420953776, 4.166666666667, 199.931558891
356, 3.061467458921, 4.166666666667, 199.3910362601
357, -1.04420953776, 4.166666666667, 199.931558891
358, -3.061467458921, 4.166666666667, 199.3910362601
359, -1.04420953776, 2.5, 199.931558891
360, 1.04420953776, 2.5, 199.931558891
361, 0.914301775996, -3.541882813092, 199.9475815354
362, 2.940133162333, -3.541882813092, 199.440135549
363, -0.914301775996, -3.541882813092, 199.9475815354
364, -2.940133162333, -3.541882813092, 199.440135549
365, 0.914301775996, -1.875216146425, 199.9475815354
366, -0.914301775996, -1.875216146425, 199.9475815354
367, 5.008779190018, 2.504292193987, 198.237958883
368, 6.452611739297, 2.504292193987, 196.7290381413
369, 4.709433607583, 0.1953103784777, 198.4669339795
370, 3.669265570394, 2.69101818449, 199.1089021778
371, 2.709976562646, 1.857684851157, 199.5270197974
372, 7.408873150076, 2.500204534492, 195.018045501
373, 7.937549574002, 2.500204534492, 192.9976506203
374, 7.037120984672, 0.004496728479683, 195.8051186903
375, 7.93155889099, 2.5, 190.9557904622
376, 7.39103626009, 2.5, 188.9385325411
377, 7.999862273683, 0.0002045344923003, 191.9530574595
378, 6.34682672233, 2.5, 187.1299085679
379, 4.87009143207, 2.5, 185.6531732777
380, 6.928203230275, 0, 188
381, 3.061467458921, 2.5, 184.6089637399
382, 1.04420953776, 2.5, 184.068441109
383, 4, 0, 185.0717967697
384, -3.061467458921, 2.5, 184.6089637399
385, -1.04420953776, 2.5, 184.068441109
386, -4.165284670629e-14, 0, 184
387, -4.87009143207, 2.5, 185.6531732777
388, -6.34682672233, 2.5, 187.1299085679
389, -4, 0, 185.0717967697
390, -7.39103626009, 2.5, 188.9385325411
391, -7.93155889099, 2.5, 190.9557904622
392, -6.928203230276, 0, 188
393, -7.937549574002, 2.500204534492, 192.9976506203
394, -7.408873150076, 2.500204534492, 195.018045501
395, -7.999862273683, 0.0002045344923003, 191.9530574595
396, -6.452611739297, 2.504292193987, 196.7290381413
397, -5.008779190018, 2.504292193987, 198.237958883
398, -7.037120984672, 0.004496728479683, 195.8051186903
399, -4.709433607583, 0.1953103784777, 198.4669339795
400, -3.669265570394, 2.69101818449, 199.1089021778
401, -2.709976562646, 1.857684851157, 199.5270197974
402, 6.452611739297, -2.495707806013, 196.7290381413
403, 5.008779190018, -2.495707806013, 198.237958883
404, 3.669265570394, -2.30898181551, 199.1089021778
405, 2.586464490448, -0.8508646286017, 199.570350153
406, 7.937549574002, -2.499795465508, 192.9976506203
407, 7.408873150076, -2.499795465508, 195.018045501
408, 7.39103626009, -2.5, 188.9385325411
409, 7.93155889099, -2.5, 190.9557904622
410, 4.87009143207, -2.5, 185.6531732777
411, 6.34682672233, -2.5, 187.1299085679
412, 1.04420953776, -2.5, 184.068441109
413, 3.061467458921, -2.5, 184.6089637399
414, -1.04420953776, -2.5, 184.068441109
415, -3.061467458921, -2.5, 184.6089637399
416, -6.34682672233, -2.5, 187.1299085679
417, -4.87009143207, -2.5, 185.6531732777
418, -7.93155889099, -2.5, 190.9557904622
419, -7.39103626009, -2.5, 188.9385325411
420, -7.408873150076, -2.499795465508, 195.018045501
421, -7.937549574002, -2.499795465508, 192.9976506203
422, -5.008779190018, -2.495707806013, 198.237958883
423, -6.452611739297, -2.495707806013, 196.7290381413
424, -3.669265570394, -2.30898181551, 199.1089021778
425, -2.586464490448, -0.8508646286017, 199.570350153
426, 0.914301775996, -0.2085494797587, 199.9475815354
427, -0.914301775996, -0.2085494797587, 199.9475815354
428, -1.704319104564, 1.024351517824, 199.8163480213
429, 1.704319104564, 1.024351517824, 199.8163480213
430, -5, 0, 114
431, 5, 0, 114
432, 0, -3, 114
433, 0, 3, 114
434, 0, 0, 48
435, -2.5, 1.5, 48
436, -2.5, -1.5, 48
437, 2.5, -1.5, 48
438, 2.5, 1.5, 48
439, 0, 0, 180
440, -2.5, -1.5, 180
441, -2.5, 1.5, 180
442, 2.5, -1.5, 180
443, 2.5, 1.5, 180
444, 7.246933262871, 0, 75.04592313609
445, -7.246933262871, 0, 75.04592313609
446, 14, 0, 72.24871130596
447, -14, 0, 72.24871130596
448, 19.79898987322, 0, 67.79898987322
449, 24.24871130596, 0, 62
450, 27.04592313609, 0, 55.24693326287
451, 28, 0, 48
452, 27.04592313609, 0, 40.75306673713
453, 19.79898987322, 0, 28.20101012678
454, 24.24871130596, 0, 34
455, 7.24693326287, 0, 20.95407686391
456, -1.706539592236e-13, 0, 20
457, 14, 0, 23.75128869404
458, -7.246933262871, 0, 20.95407686391
459, -14, 0, 23.75128869404
460, -19.79898987322, 0, 28.20101012678
461, -24.24871130596, 0, 34
462, -27.04592313609, 0, 40.75306673713
463, -27.04592313609, 0, 55.24693326287
464, -24.24871130596, 0, 62
465, -28, 0, 48
466, -19.79898987322, 0, 67.79898987322
467, -7.174332940777e-15, 5, 48
468, -3.751288694036, 5, 62
469, -14, 5, 51.75128869404
470, 3.751288694036, 5, 34
471, 14, 5, 44.24871130596
472, 10.24871130596, 5, 58.24871130596
473, -10.24871130596, 5, 37.75128869404
474, 5.124355652982, 5, 67.12435565298
475, -14, 5, 62
476, 19.12435565298, 5, 53.12435565298
477, 14, 5, 34
478, 9.562177826491, 5, 69.68653347947
479, 2.562177826491, 5, 71.56217782649
480, -1.875644347018, 5, 69
481, -8.875644347018, 5, 67.12435565298
482, 0.6865334794732, 5, 64.56217782649
483, 17.24871130596, 5, 60.12435565298
484, 12.12435565298, 5, 65.24871130596
485, 7.686533479473, 5, 62.68653347947
486, 23.56217782649, 5, 50.56217782649
487, 21.68653347947, 5, 57.56217782649
488, 14.68653347947, 5, 55.68653347947
489, 19.12435565298, 5, 39.12435565298
490, 21, 5, 46.12435565298
491, 16.56217782649, 5, 48.68653347947
492, 14, 5, 28.87564434702
493, 19.12435565298, 5, 34
494, 14, 5, 39.12435565298
495, 1.875644347018, 5, 27
496, 8.875644347018, 5, 28.87564434702
497, 8.875644347018, 5, 34
498, -12.12435565298, 5, 30.75128869404
499, -5.124355652982, 5, 28.87564434702
500, -3.248711305964, 5, 35.87564434702
501, -17.24871130596, 5, 35.87564434702
502, -21, 5, 49.87564434702
503, -19.12435565298, 5, 42.87564434702
504, -12.12435565298, 5, 44.75128869404
505, -19.12435565298, 5, 56.87564434702
506, -14, 5, 67.12435565298
507, -19.12435565298, 5, 62
508, -14, 5, 56.87564434702
509, -8.875644347018, 5, 62
510, -7, 5, 49.87564434702
511, -8.875644347018, 5, 56.87564434702
512, -1.875644347018, 5, 55
513, 3.248711305964, 5, 60.12435565298
514, 5.124355652982, 5, 53.12435565298
515, -5.124355652982, 5, 42.87564434702
516, 7, 5, 46.12435565298
517, 8.875644347018, 5, 39.12435565298
518, 1.875644347018, 5, 41
519, 12.12435565298, 5, 51.24871130596
520, -7.174332940777e-15, -5, 48
521, -3.751288694036, -5, 62
522, -14, -5, 51.75128869404
523, 3.751288694036, -5, 34
524, 14, -5, 44.24871130596
525, 10.24871130596, -5, 58.24871130596
526, -10.24871130596, -5, 37.75128869404
527, 5.124355652982, -5, 67.12435565298
528, -14, -5, 62
529, 19.12435565298, -5, 53.12435565298
530, 14, -5, 34
531, 2.562177826491, -5, 71.56217782649
532, 9.562177826491, -5, 69.68653347947
533, -8.875644347018, -5, 67.12435565298
534, -1.875644347018, -5, 69
535, 0.6865334794732, -5, 64.56217782649
536, 12.12435565298, -5, 65.24871130596
537, 17.24871130596, -5, 60.12435565298
538, 7.686533479473, -5, 62.68653347947
539, 21.68653347947, -5, 57.56217782649
540, 23.56217782649, -5, 50.56217782649
541, 14.68653347947, -5, 55.68653347947
542, 21, -5, 46.12435565298
543, 19.12435565298, -5, 39.12435565298
544, 16.56217782649, -5, 48.68653347947
545, 19.12435565298, -5, 34
546, 14, -5, 28.87564434702
547, 14, -5, 39.12435565298
548, 8.875644347018, -5, 28.87564434702
549, 1.875644347018, -5, 27
550, 8.875644347018, -5, 34
551, -5.124355652982, -5, 28.87564434702
552, -12.12435565298, -5, 30.75128869404
553, -3.248711305964, -5, 35.87564434702
554, -17.24871130596, -5, 35.87564434702
555, -19.12435565298, -5, 42.87564434702
556, -21, -5, 49.87564434702
557, -12.12435565298, -5, 44.75128869404
558, -19.12435565298, -5, 56.87564434702
559, -19.12435565298, -5, 62
560, -14, -5, 67.12435565298
561, -14, -5, 56.87564434702
562, -8.875644347018, -5, 62
563, -1.875644347018, -5, 55
564, -8.875644347018, -5, 56.87564434702
565, -7, -5, 49.87564434702
566, 5.124355652982, -5, 53.12435565298
567, 3.248711305964, -5, 60.12435565298
568, -5.124355652982, -5, 42.87564434702
569, 1.875644347018, -5, 41
570, 8.875644347018, -5, 39.12435565298
571, 7, -5, 46.12435565298
572, 12.12435565298, -5, 51.24871130596
573, 15.28761091622, -7.216767801455e-17, 195.8350285147
574, 9.274950641241, 0, 202.7846252033
575, 1.879065298762, 1.7763568394e-15, 204.5912207106
576, 16.30405949595, -2.5, 198.9175142573
577, 17.64380545811, -2.5, 193.9175142573
578, 16.30405949595, 2.5, 198.9175142573
579, 17.64380545811, 2.5, 193.9175142573
580, 5.701942847077, 2.5, 183.4696300282
581, 7.495093791413, 2.5, 184.5049062086
582, 5.701942847077, -2.5, 183.4696300282
583, 7.495093791413, -2.5, 184.5049062086
584, 9.333333333333, 0, 182.6666666667
585, 0.5965608728647, 2.5, 181.8377929749
586, 2.667113233685, 2.5, 181.8377929749
587, 0.5965608728647, -2.5, 181.8377929749
588, 2.667113233685, -2.5, 181.8377929749
589, 3.26367410655, 0, 179.4029925601
590, -7.39089132769, -2.5, 184.5328271746
591, -9.124928405887, 0, 182.7225085987
592, -7.39089132769, 2.5, 184.5328271746
593, -5.597740383354, 2.5, 183.4975509942
594, -5.597740383354, -2.5, 183.4975509942
595, 10.1622070251, 2.5, 189.3328867663
596, 10.17409037491, 2.500204534492, 191.3580256038
597, 10.17409037491, -2.499795465508, 191.3580256038
598, 12.59700743988, 0, 188.7363258935
599, 10.1622070251, -2.5, 189.3328867663
600, -9.140737844336, 2.504292193987, 196.340541477
601, -10.06600999924, 2.500204534492, 194.6293590862
602, -10.06600999924, -2.499795465508, 194.6293590862
603, -12.38084668855, 0, 195.2789928582
604, -9.140737844336, -2.495707806013, 196.340541477
605, -6.308593102571, 2.69101818449, 200.1820091744
606, -3.401233424572, 2.69101818449, 201.9074948027
607, -3.472079033996, 0, 204.5411655079
608, -3.401233424572, -2.30898181551, 201.9074948027
609, -6.379438711995, 0, 202.8156798796
610, 6.298503719941, 0, 181.0348296134
611, -6.308593102571, -2.30898181551, 200.1820091744
612, -9.286798389993, 0, 201.0901942513
613, 12.47543789887, 0, 192.0232674717
614, 10.0525208339, -2.499795465508, 194.644967182
615, -6.217568727888, 0, 181.1843201204
616, -2.690380705355, 2.5, 181.9593625159
617, -2.690380705355, -2.5, 181.9593625159
618, -0.02326747167005, 0, 179.5245621011
619, -7.59371369506, 2.504292193987, 199.2461421735
620, -10.83382253927, 0, 198.1845935548
621, -7.59371369506, -2.495707806013, 199.2461421735
622, 10.0525208339, 2.500204534492, 194.644967182
623, 12.35386835786, 0, 195.3102090499
624, -3.31020904989, 0, 179.6461316421
625, 0.9395326493808, 0.8333333333333, 202.2956103553
626, 0.9395326493808, -0.8333333333333, 202.2956103553
627, 0.03122166029049, -1.041882813092, 202.1911168881
628, -2.771315697408, 4.166666666667, 202.1342860591
629, -1.736039516998, 3.333333333333, 202.2705827539
630, -0.7256612581935, 0.1910181844904, 201.932522404
631, -12.74957043532, 0, 188.583762898
632, -16.37478521766, 0, 190.291881449
633, -12.56520856193, 0, 191.9313778781
634, -1.736039516998, 0, 208.2705827539
635, -0.7965068676172, 2.5, 204.5661931092
636, -0.7965068676172, -2.5, 204.5661931092
637, 0.9395326493808, 2.5, 208.2956103553
638, 9.126930844688, 2.5, 187.539735822
639, 9.126930844688, -2.5, 187.539735822
640, -8.4261675081, -2.5, 186.3259781189
641, -8.4261675081, 2.5, 186.3259781189
642, -9.643399194997, 0, 205.2053511635
643, -14.85067738212, 0, 198.6394964291
644, -2.644350506088, -3.541882813092, 202.1660892867
645, -10.05412664943, 2.5, 192.6042202487
646, -10.05412664943, -2.5, 192.6042202487
647, 2.743394731404, 4.166666666667, 202.2384885228
648, 3.373312458568, 2.69101818449, 202.0116972664
649, 9.127248678994, 2.504292193987, 196.3561495728
650, 7.587789820683, 0.004292193987383, 200.0933576496
651, 10.81440949955, 2.5, 199.0474171266
652, 8.513061975587, 0.0002045344923003, 198.3821752587
653, 9.127248678994, -2.495707806013, 196.3561495728
654, 10.81440949955, -2.5, 199.0474171266
655, -15.03503925551, 0, 185.291881449
656, -6.736039516998, 0, 206.9308367918
657, -13.30365323284, 0, 201.5450971257
658, -16.19042334427, 0, 193.6394964291
659, 5.545786309711, -1.041882813092, 201.2878191345
660, 6.302669228195, 0.1910181844904, 201.0292246504
661, 6.63747532062, -2.5, 200.8564142168
662, 10.96517038661, 0, 185.7014962801
663, 13.32692070451, 0, 182.3333333333
664, 9.666666666667, 0, 178.6730792955
665, -10.9372494206, 0, 185.6531357483
666, -10.23848852282, -2.5, 189.2566052686
667, -10.23848852282, 2.5, 189.2566052686
668, 6.631837053275, 0, 177.0412422422
669, -13.22271824079, 0, 182.3612542993
670, 14.95875775779, 0, 185.3681629467
671, 1.631837053275, 0, 175.7014962801
672, -9.562464202944, 0, 178.7010002615
673, -6.655104524945, 0, 177.1628117832
674, -1.655104524945, 0, 175.8230658211
675, 13.82073963704, -2.5, 195.5726187823
676, 13.82073963704, 2.5, 195.5726187823
677, 12.28128077873, -3.608383900728e-17, 199.309826859
678, 7.589060200726, -2.495707806013, 199.2635092508
679, 0.9395326493808, -2.5, 208.2956103553
680, 7.589060200726, 2.504292193987, 199.2635092508
681, 16.29850371994, 0, 190.3681629467
682, 2.616429540084, -3.541882813092, 202.2702917505
683, 6.345593871614, -2.5, 203.7670978193
684, 9.276221021283, -2.5, 201.9547768046
685, 9.276221021283, 2.5, 201.9547768046
686, 6.303939608237, 2.69101818449, 200.1993762517
687, 13.29772935846, 2.5, 202.3923126017
688, 9.63747532062, -2.5, 206.0525666395
689, 13.29772935846, -2.5, 202.3923126017
690, 1.974808829791, 1.666666666667, 202.1593136604
691, 2.647651200375, 2.5, 204.6703955729
692, 2.604726556955, 0.1910181844904, 201.932522404
693, 5.939532649381, 2.5, 206.9558643931
694, 0.9395326493808, 2.5, 202.2956103553
695, 1.847843638471, -1.041882813092, 202.1911168881
696, 9.63747532062, 2.5, 206.0525666395
697, 5.939532649381, -2.5, 206.9558643931
698, 6.345593871614, 2.5, 203.7670978193
699, 5.577007970001, 8.881784197001e-16, 203.687922957
700, 2.647651200375, -2.5, 204.6703955729
701, 0.9395326493808, -2.5, 202.2956103553
702, 13.94230917805, -2.5, 192.2856772041
703, 13.94230917805, 2.5, 192.2856772041
704, -2.5, -1.5, 114
705, -2.5, 1.5, 114
706, 0, 0, 114
707, 2.5, 1.5, 114
708, 2.5, -1.5, 114
709, 8.975377643885, -0.8976663497507, 65.49317875684
710, 5.93537837674, -0.01296017741486, 25.92144332982
711, -6.011920087684, -0.5, 28.36320878172
712, -3.005960043842, -2.75, 24.18160439086
713, -1.130315696824, -2.75, 31.18160439086
714, -8.130315696824, -2.75, 33.05724873788
715, -10.00596004384, -2.75, 26.05724873788
716, 8.875644347018, 0, 28.87564434702
717, 3.751288694036, 0, 34
718, 4.843333535388, 2.493519911293, 29.96072166491
719, 4.843333535388, -2.506480088707, 29.96072166491
720, 9.96768918837, -2.506480088707, 24.83636601193
721, 9.96768918837, 2.493519911293, 24.83636601193
722, 5.124355652982, 0, 67.12435565298
723, 9.562177826491, 0, 69.68653347947
724, 11.48768882194, -2.948833174875, 68.8709450314
725, 7.049866648434, 2.051166825125, 66.30876720491
726, 7.049866648434, -2.948833174875, 66.30876720491
727, 1.875644347018, 0, 27
728, 2.96768918837, 2.493519911293, 22.96072166491
729, -12.12435565298, 0, 30.75128869404
730, -8.130315696824, 2.25, 33.05724873788
731, -10.00596004384, 2.25, 26.05724873788
732, 2.96768918837, -2.506480088707, 22.96072166491
733, 14, 0, 28.87564434702
734, 8.875644347018, 0, 34
735, 14, 0, 34
736, 19.12435565298, 0, 53.12435565298
737, 14.68653347947, 0, 55.68653347947
738, 16.56217782649, 0, 48.68653347947
739, 14, 0, 39.12435565298
740, -8.875644347018, 0, 62
741, -14, 0, 67.12435565298
742, -14, 0, 62
743, 23.56217782649, 0, 50.56217782649
744, -10.24871130596, 0, 37.75128869404
745, 7, 0, 46.12435565298
746, 1.875644347018, 0, 41
747, 5.124355652982, 0, 53.12435565298
748, 8.875644347018, 0, 39.12435565298
749, 12.12435565298, 0, 51.24871130596
750, 10.24871130596, 0, 58.24871130596
751, -1.875644347018, 0, 55
752, 14, 0, 44.24871130596
753, 3.248711305964, 0, 60.12435565298
754, -3.751288694036, 0, 62
755, 2.562177826491, 0, 71.56217782649
756, 21.68653347947, 0, 57.56217782649
757, 19.12435565298, 0, 34
758, -19.12435565298, 0, 62
759, 0.6865334794732, 0, 64.56217782649
760, -1.875644347018, 0, 69
761, 11.48768882194, 2.051166825125, 68.8709450314
762, -8.875644347018, 0, 67.12435565298
763, 21, 0, 46.12435565298
764, -3.248711305964, 0, 35.87564434702
765, 19.12435565298, 0, 39.12435565298
766, 9.612044474925, -2.948833174875, 61.8709450314
767, -14, 0, 56.87564434702
768, -21, 0, 49.87564434702
769, 17.24871130596, 0, 60.12435565298
770, -8.875644347018, 0, 56.87564434702
771, -7, 0, 49.87564434702
772, -5.124355652982, 0, 42.87564434702
773, -19.12435565298, 0, 42.87564434702
774, -14, 0, 51.75128869404
775, -19.12435565298, 0, 56.87564434702
776, -12.12435565298, 0, 44.75128869404
777, -17.24871130596, 0, 35.87564434702
778, 9.612044474925, 2.051166825125, 61.8709450314
779, 16.61204447492, -2.948833174875, 63.74658937842
780, 2.612044474925, 2.051166825125, 63.74658937842
781, 2.612044474925, -2.948833174875, 63.74658937842
782, -3.005960043842, 2.25, 24.18160439086


** Volume elements
*Element, TYPE=C3D10, ELSET=Evolumes
388, 41, 40, 16, 573, 52, 179, 177, 577, 576, 578
389, 41, 16, 17, 573, 177, 28, 178, 577, 578, 579
390, 353, 352, 196, 268, 383, 580, 581, 583, 582, 584
391, 352, 351, 202, 274, 386, 585, 586, 588, 587, 589
392, 201, 344, 273, 351, 592, 590, 591, 593, 389, 594
393, 203, 342, 354, 275, 596, 377, 595, 598, 597, 599
394, 200, 339, 340, 272, 601, 398, 600, 603, 602, 604
395, 346, 197, 198, 269, 606, 246, 605, 608, 607, 609
396, 274, 196, 352, 268, 610, 580, 588, 302, 584, 582
397, 198, 270, 346, 269, 612, 611, 605, 609, 318, 608
398, 196, 352, 202, 274, 580, 586, 230, 610, 588, 589
399, 342, 203, 278, 275, 596, 613, 614, 597, 598, 296
400, 204, 201, 273, 351, 236, 591, 615, 616, 593, 594
401, 276, 202, 351, 274, 618, 585, 617, 305, 589, 587
402, 272, 340, 198, 270, 604, 619, 620, 317, 621, 612
403, 278, 342, 206, 203, 614, 622, 623, 613, 596, 224
404, 276, 204, 273, 351, 624, 615, 308, 617, 616, 594
405, 351, 276, 204, 202, 617, 624, 616, 585, 618, 233
406, 200, 340, 198, 272, 600, 619, 245, 603, 604, 620
407, 198, 340, 346, 270, 619, 399, 605, 612, 621, 611
408, 108, 109, 350, 575, 111, 427, 366, 626, 625, 627
409, 345, 346, 109, 197, 401, 428, 359, 628, 606, 629
410, 109, 346, 350, 575, 428, 425, 427, 625, 630, 627
411, 199, 47, 271, 272, 632, 310, 631, 633, 312, 314
412, 269, 197, 1, 575, 607, 209, 634, 636, 635, 637
413, 353, 65, 354, 203, 378, 376, 380, 638, 252, 595
414, 354, 88, 353, 275, 408, 411, 380, 599, 323, 639
415, 344, 273, 92, 343, 590, 331, 416, 392, 640, 419
416, 343, 69, 344, 201, 390, 388, 392, 641, 260, 592
417, 269, 198, 270, 49, 609, 612, 318, 281, 642, 316
418, 198, 24, 200, 272, 244, 240, 245, 620, 643, 603
419, 269, 350, 346, 575, 644, 425, 608, 636, 627, 630
420, 346, 95, 350, 269, 424, 364, 425, 608, 287, 644
421, 342, 87, 354, 275, 406, 409, 377, 597, 324, 599
422, 64, 342, 354, 203, 373, 377, 375, 251, 596, 595
423, 343, 339, 70, 200, 395, 393, 391, 645, 601, 263
424, 272, 343, 339, 93, 646, 395, 602, 336, 418, 421
425, 195, 348, 62, 347, 647, 356, 213, 648, 371, 370
426, 206, 341, 342, 574, 649, 374, 622, 651, 650, 652
427, 342, 341, 278, 574, 374, 653, 614, 652, 650, 654
428, 72, 346, 345, 197, 400, 401, 358, 214, 606, 628
429, 278, 206, 342, 574, 623, 622, 614, 654, 651, 652
430, 272, 339, 340, 94, 602, 398, 604, 335, 420, 423
431, 199, 46, 271, 47, 655, 309, 631, 632, 58, 310
432, 340, 71, 339, 200, 396, 394, 398, 600, 264, 601
433, 341, 278, 86, 342, 653, 322, 402, 374, 614, 407
434, 206, 341, 63, 342, 649, 368, 249, 622, 374, 372
435, 25, 1, 269, 197, 37, 634, 656, 210, 209, 607
436, 48, 270, 198, 49, 315, 612, 657, 60, 316, 642
437, 24, 23, 200, 272, 35, 241, 240, 643, 658, 603
438, 347, 349, 85, 574, 405, 362, 404, 660, 659, 661
439, 196, 275, 268, 42, 662, 299, 584, 663, 295, 297
440, 43, 196, 274, 268, 664, 610, 300, 298, 584, 302
441, 46, 273, 199, 271, 307, 665, 655, 309, 311, 631
442, 197, 346, 109, 575, 606, 428, 629, 635, 630, 625
443, 65, 353, 196, 203, 378, 581, 253, 252, 638, 227
444, 268, 353, 88, 275, 583, 411, 326, 299, 639, 323
445, 271, 92, 273, 343, 334, 331, 311, 666, 419, 640
446, 69, 343, 199, 201, 390, 667, 261, 260, 641, 239
447, 196, 202, 43, 274, 230, 668, 664, 610, 589, 300
448, 46, 199, 273, 201, 655, 665, 307, 669, 239, 591
449, 275, 196, 203, 42, 662, 227, 598, 295, 663, 670
450, 198, 197, 25, 269, 246, 210, 243, 609, 607, 656
451, 199, 23, 272, 200, 237, 658, 633, 242, 241, 603
452, 202, 276, 44, 274, 618, 303, 671, 589, 305, 301
453, 273, 204, 21, 201, 615, 231, 672, 591, 236, 235
454, 48, 272, 198, 270, 313, 620, 657, 315, 317, 612
455, 273, 276, 21, 204, 308, 673, 672, 615, 624, 231
456, 204, 276, 44, 202, 624, 303, 674, 233, 618, 671
457, 343, 70, 199, 200, 391, 262, 667, 645, 263, 242
458, 343, 272, 271, 93, 646, 314, 666, 418, 336, 333
459, 95, 346, 340, 270, 424, 399, 422, 337, 611, 621
460, 346, 197, 269, 575, 606, 607, 608, 630, 635, 636
461, 206, 278, 573, 574, 623, 675, 676, 651, 654, 677
462, 87, 342, 278, 275, 406, 614, 321, 324, 597, 296
463, 342, 64, 206, 203, 373, 250, 622, 596, 251, 224
464, 18, 203, 196, 42, 222, 227, 226, 181, 670, 663
465, 199, 46, 22, 201, 655, 188, 238, 239, 669, 234
466, 3, 345, 109, 197, 357, 359, 112, 215, 628, 629
467, 199, 272, 23, 47, 633, 658, 237, 632, 312, 193
468, 272, 94, 340, 270, 335, 423, 604, 317, 338, 621
469, 71, 340, 198, 200, 396, 619, 265, 264, 600, 245
470, 198, 269, 25, 49, 609, 656, 243, 642, 281, 175
471, 277, 278, 86, 341, 293, 322, 319, 678, 653, 402
472, 2, 269, 1, 575, 282, 634, 38, 679, 636, 637
473, 206, 205, 63, 341, 221, 248, 249, 649, 680, 368
474, 346, 270, 95, 269, 611, 337, 424, 608, 318, 287
475, 21, 276, 273, 45, 673, 308, 672, 189, 304, 306
476, 198, 48, 24, 272, 657, 192, 244, 620, 313, 643
477, 42, 196, 43, 268, 663, 664, 54, 297, 584, 298
478, 43, 202, 44, 274, 668, 671, 55, 300, 589, 301
479, 17, 275, 203, 42, 681, 598, 223, 180, 295, 670
480, 46, 273, 21, 201, 307, 672, 187, 669, 591, 235
481, 44, 21, 276, 204, 185, 673, 303, 674, 231, 624
482, 85, 349, 267, 574, 362, 682, 284, 661, 659, 683
483, 277, 278, 341, 574, 293, 653, 678, 684, 654, 650
484, 206, 205, 341, 574, 221, 680, 649, 651, 685, 650
485, 341, 347, 85, 574, 369, 404, 403, 650, 660, 661
486, 195, 62, 205, 347, 213, 247, 218, 648, 370, 686
487, 72, 340, 346, 198, 397, 399, 400, 266, 619, 605
488, 39, 16, 40, 574, 176, 179, 51, 688, 687, 689
489, 205, 347, 62, 341, 686, 370, 247, 680, 369, 367
490, 72, 198, 346, 197, 266, 605, 400, 214, 246, 606
491, 21, 44, 276, 45, 185, 303, 673, 189, 56, 304
492, 22, 23, 46, 199, 34, 190, 188, 238, 237, 655
493, 46, 199, 23, 47, 655, 237, 190, 58, 632, 193
494, 196, 19, 18, 42, 225, 30, 226, 663, 182, 181
495, 272, 23, 48, 24, 658, 191, 313, 643, 35, 192
496, 272, 48, 23, 47, 313, 191, 658, 312, 59, 193
497, 195, 348, 347, 575, 647, 371, 648, 691, 690, 692
498, 21, 273, 46, 45, 672, 307, 187, 189, 306, 57
499, 2, 25, 269, 49, 173, 656, 282, 61, 175, 281
500, 21, 22, 46, 201, 33, 188, 187, 235, 234, 669
501, 203, 18, 17, 42, 222, 29, 223, 670, 181, 180
502, 25, 269, 1, 2, 656, 634, 37, 173, 282, 38
503, 48, 198, 25, 49, 657, 243, 194, 60, 642, 175
504, 198, 25, 24, 48, 243, 36, 244, 657, 194, 192
505, 15, 2, 1, 575, 172, 38, 26, 693, 679, 637
506, 277, 40, 278, 574, 289, 291, 293, 684, 689, 654
507, 15, 1, 195, 575, 26, 208, 207, 693, 637, 691
508, 3, 197, 109, 575, 215, 629, 112, 694, 635, 625
509, 278, 40, 573, 574, 291, 576, 675, 654, 689, 677
510, 196, 43, 202, 19, 664, 668, 230, 225, 183, 229
511, 20, 204, 44, 202, 232, 674, 186, 228, 233, 671
512, 353, 196, 66, 65, 581, 254, 379, 378, 253, 77
513, 343, 69, 199, 70, 390, 261, 667, 391, 81, 262
514, 343, 271, 92, 93, 666, 334, 419, 418, 333, 104
515, 353, 88, 89, 268, 411, 100, 410, 583, 326, 325
516, 108, 349, 109, 575, 365, 426, 111, 626, 695, 625
517, 94, 95, 340, 270, 106, 422, 423, 338, 337, 621
518, 89, 352, 274, 90, 413, 588, 328, 101, 412, 327
519, 67, 202, 66, 352, 256, 255, 78, 382, 586, 381
520, 64, 354, 65, 203, 375, 376, 76, 251, 595, 252
521, 91, 273, 92, 344, 332, 331, 103, 417, 590, 416
522, 344, 201, 69, 68, 592, 260, 388, 387, 259, 80
523, 354, 87, 88, 275, 409, 99, 408, 599, 324, 323
524, 347, 348, 109, 575, 371, 360, 429, 692, 690, 625
525, 16, 39, 15, 574, 176, 174, 27, 687, 688, 696
526, 340, 198, 72, 71, 619, 266, 397, 396, 265, 83
527, 277, 86, 85, 341, 319, 97, 320, 678, 402, 403
528, 62, 63, 205, 341, 74, 248, 247, 367, 368, 680
529, 85, 277, 341, 574, 320, 678, 403, 661, 684, 650
530, 351, 91, 276, 90, 415, 329, 617, 414, 102, 330
531, 68, 204, 67, 351, 258, 257, 79, 384, 616, 385
532, 21, 44, 20, 204, 185, 186, 32, 231, 674, 232
533, 42, 43, 196, 19, 54, 664, 663, 182, 183, 225
534, 86, 342, 278, 87, 407, 614, 322, 98, 406, 321
535, 206, 342, 63, 64, 622, 372, 249, 250, 373, 75
536, 17, 41, 275, 42, 178, 294, 681, 180, 53, 295
537, 202, 20, 19, 43, 228, 31, 229, 668, 184, 183
538, 43, 44, 202, 20, 55, 671, 668, 184, 186, 228
539, 39, 2, 15, 575, 50, 172, 174, 697, 679, 693
540, 3, 62, 195, 348, 73, 213, 212, 355, 356, 647
541, 339, 94, 272, 93, 420, 335, 602, 421, 105, 336
542, 71, 70, 339, 200, 82, 393, 394, 264, 263, 601
543, 205, 195, 347, 574, 218, 648, 686, 685, 698, 660
544, 1, 197, 195, 575, 209, 211, 208, 637, 635, 691
545, 195, 347, 574, 575, 648, 660, 698, 691, 692, 699
546, 267, 2, 39, 575, 279, 50, 280, 700, 679, 697
547, 15, 195, 574, 575, 207, 698, 696, 693, 691, 699
548, 267, 39, 574, 575, 280, 688, 683, 700, 697, 699
549, 205, 347, 341, 574, 686, 369, 680, 685, 660, 650
550, 85, 267, 277, 574, 284, 290, 320, 661, 683, 684
551, 205, 206, 16, 574, 221, 220, 216, 685, 651, 687
552, 3, 72, 345, 197, 84, 358, 357, 215, 214, 628
553, 16, 206, 573, 574, 220, 676, 578, 687, 651, 677
554, 573, 40, 16, 574, 576, 179, 578, 677, 689, 687
555, 109, 349, 347, 575, 426, 405, 429, 625, 695, 692
556, 267, 85, 4, 349, 284, 96, 285, 682, 362, 361
557, 195, 197, 3, 575, 211, 215, 212, 691, 635, 694
558, 4, 269, 267, 575, 286, 283, 285, 701, 636, 700
559, 574, 39, 15, 575, 688, 174, 696, 699, 697, 693
560, 278, 40, 41, 573, 291, 52, 292, 675, 576, 577
561, 39, 40, 277, 574, 51, 289, 288, 688, 689, 684
562, 350, 95, 4, 269, 364, 107, 363, 644, 287, 286
563, 267, 269, 2, 575, 283, 282, 279, 700, 636, 679
564, 17, 16, 206, 573, 28, 220, 219, 579, 578, 676
565, 205, 16, 15, 574, 216, 27, 217, 685, 687, 696
566, 15, 195, 205, 574, 207, 218, 217, 696, 698, 685
567, 267, 39, 277, 574, 280, 288, 290, 683, 688, 684
568, 275, 573, 41, 17, 702, 577, 294, 681, 579, 178
569, 41, 573, 275, 278, 577, 702, 294, 292, 675, 296
570, 275, 203, 573, 17, 598, 703, 702, 681, 223, 579
571, 573, 203, 275, 278, 703, 598, 702, 675, 613, 296
572, 203, 206, 573, 17, 224, 676, 703, 223, 219, 579
573, 573, 206, 203, 278, 676, 224, 703, 675, 623, 613
574, 343, 272, 199, 271, 646, 633, 667, 666, 314, 631
575, 272, 343, 200, 339, 646, 645, 603, 602, 395, 601
576, 343, 272, 200, 199, 646, 603, 645, 667, 633, 242
577, 273, 343, 199, 271, 640, 667, 665, 311, 666, 631
578, 273, 343, 201, 199, 640, 641, 591, 665, 667, 239
579, 343, 273, 201, 344, 640, 591, 641, 392, 590, 592
580, 196, 275, 353, 268, 662, 639, 581, 584, 299, 583
581, 275, 353, 203, 196, 639, 638, 598, 662, 581, 227
582, 353, 275, 203, 354, 639, 598, 638, 380, 599, 595
583, 89, 352, 268, 274, 413, 582, 325, 328, 588, 302
584, 352, 89, 268, 353, 413, 325, 582, 383, 410, 583
585, 66, 196, 352, 202, 254, 580, 381, 255, 230, 586
586, 196, 66, 352, 353, 254, 381, 580, 581, 379, 383
587, 90, 274, 351, 352, 327, 587, 414, 412, 588, 386
588, 351, 274, 90, 276, 587, 327, 414, 617, 305, 330
589, 67, 202, 351, 204, 256, 585, 385, 257, 233, 616
590, 202, 67, 351, 352, 256, 385, 585, 586, 382, 386
591, 68, 351, 201, 204, 384, 593, 259, 258, 616, 236
592, 201, 351, 68, 344, 593, 384, 259, 592, 389, 387
593, 91, 351, 273, 344, 415, 594, 332, 417, 389, 590
594, 273, 351, 91, 276, 594, 415, 332, 308, 617, 329
595, 4, 575, 350, 269, 701, 627, 363, 286, 636, 644
596, 350, 575, 4, 108, 627, 701, 363, 366, 626, 110
597, 575, 574, 349, 347, 699, 659, 695, 692, 660, 405
598, 349, 574, 575, 267, 659, 699, 695, 682, 683, 700
599, 349, 575, 4, 267, 695, 701, 361, 682, 700, 285
600, 4, 575, 349, 108, 701, 695, 361, 110, 626, 365
601, 348, 575, 3, 109, 690, 694, 355, 360, 625, 112
602, 3, 575, 348, 195, 694, 690, 355, 212, 691, 647
603, 434, 7, 5, 439, 705, 114, 704, 706, 441, 440
604, 6, 434, 5, 10, 436, 704, 113, 121, 437, 432
605, 12, 7, 8, 434, 433, 115, 123, 438, 705, 435
606, 6, 8, 5, 434, 116, 430, 113, 436, 435, 704
607, 434, 8, 5, 7, 435, 430, 704, 705, 115, 114
608, 439, 9, 12, 11, 442, 431, 707, 443, 118, 119
609, 439, 7, 12, 434, 441, 433, 707, 706, 705, 438
610, 12, 7, 439, 11, 433, 441, 707, 119, 124, 443
611, 10, 12, 439, 9, 120, 707, 708, 117, 431, 442
612, 439, 12, 10, 434, 707, 120, 708, 706, 438, 437
613, 439, 5, 10, 9, 440, 432, 708, 442, 122, 117
614, 10, 5, 439, 434, 432, 440, 708, 437, 704, 706
615, 523, 154, 526, 711, 549, 551, 553, 713, 712, 714
616, 154, 155, 526, 711, 166, 552, 551, 712, 715, 714
617, 523, 470, 153, 710, 717, 716, 548, 719, 718, 720
618, 153, 470, 129, 710, 716, 496, 457, 720, 718, 721
619, 474, 149, 527, 709, 723, 532, 722, 725, 724, 726
620, 523, 130, 470, 710, 727, 495, 717, 719, 728, 718
621, 473, 155, 131, 711, 729, 459, 498, 730, 715, 731
622, 153, 129, 154, 710, 457, 455, 165, 720, 721, 732
623, 477, 523, 153, 530, 734, 548, 733, 735, 550, 546
624, 529, 472, 476, 471, 737, 488, 736, 738, 519, 491
625, 524, 523, 477, 530, 570, 734, 739, 547, 550, 735
626, 159, 475, 521, 528, 741, 740, 533, 560, 742, 562
627, 127, 471, 529, 476, 490, 738, 743, 486, 491, 736
628, 473, 526, 155, 711, 744, 552, 729, 730, 714, 715
629, 130, 523, 154, 710, 727, 549, 456, 728, 719, 732
630, 471, 467, 470, 520, 516, 518, 517, 745, 434, 746
631, 471, 472, 467, 520, 519, 514, 516, 745, 747, 434
632, 470, 520, 523, 524, 746, 569, 717, 748, 571, 570
633, 472, 471, 525, 520, 519, 749, 750, 747, 745, 566
634, 468, 467, 472, 520, 512, 514, 513, 751, 434, 747
635, 525, 520, 471, 524, 566, 745, 749, 572, 571, 752
636, 468, 472, 521, 520, 513, 753, 754, 751, 747, 563
637, 471, 520, 470, 524, 745, 746, 517, 752, 571, 748
638, 521, 472, 525, 520, 753, 750, 567, 563, 747, 566
639, 14, 149, 527, 474, 160, 532, 531, 755, 723, 722
640, 126, 529, 476, 127, 756, 736, 487, 138, 743, 486
641, 524, 477, 152, 530, 739, 757, 543, 547, 735, 545
642, 477, 530, 153, 152, 735, 546, 733, 757, 545, 164
643, 475, 159, 158, 528, 741, 170, 758, 742, 560, 559
644, 14, 527, 468, 474, 531, 759, 760, 755, 722, 482
645, 529, 126, 476, 472, 756, 487, 736, 737, 483, 488
646, 129, 130, 154, 710, 141, 456, 455, 721, 728, 732
647, 474, 125, 149, 709, 478, 446, 723, 725, 761, 724
648, 525, 472, 529, 471, 750, 737, 541, 749, 519, 738
649, 153, 477, 470, 523, 733, 497, 716, 548, 734, 717
650, 159, 521, 475, 468, 533, 740, 741, 762, 754, 509
651, 525, 471, 529, 524, 749, 738, 541, 572, 752, 544
652, 524, 477, 523, 470, 739, 734, 570, 748, 497, 717
653, 477, 470, 524, 471, 497, 748, 739, 494, 517, 752
654, 127, 529, 471, 524, 743, 738, 490, 763, 544, 752
655, 473, 130, 470, 523, 499, 495, 500, 764, 727, 717
656, 153, 154, 523, 710, 165, 549, 548, 720, 732, 719
657, 14, 468, 521, 159, 760, 754, 534, 171, 762, 533
658, 127, 471, 128, 524, 490, 489, 139, 763, 752, 765
659, 527, 149, 525, 709, 532, 536, 538, 726, 724, 766
660, 521, 475, 522, 528, 740, 767, 564, 562, 742, 561
661, 522, 133, 156, 157, 768, 462, 555, 556, 465, 168
662, 159, 468, 475, 135, 762, 509, 741, 447, 481, 506
663, 470, 129, 477, 153, 496, 492, 497, 716, 457, 733
664, 477, 128, 471, 524, 493, 489, 494, 739, 765, 752
665, 14, 468, 13, 474, 760, 480, 148, 755, 482, 479
666, 468, 14, 521, 527, 760, 534, 754, 759, 531, 535
667, 529, 525, 150, 472, 541, 537, 539, 737, 750, 769
668, 529, 524, 127, 151, 544, 763, 743, 540, 542, 451
669, 468, 521, 469, 520, 754, 770, 511, 751, 563, 771
670, 473, 523, 470, 520, 764, 717, 500, 772, 569, 746
671, 469, 467, 468, 520, 510, 512, 511, 771, 434, 751
672, 473, 470, 467, 520, 500, 518, 515, 772, 746, 434
673, 130, 129, 470, 710, 141, 496, 495, 728, 721, 718
674, 524, 151, 128, 127, 542, 452, 765, 763, 451, 139
675, 468, 14, 135, 159, 760, 445, 481, 762, 171, 447
676, 468, 13, 135, 14, 480, 147, 481, 760, 148, 445
677, 522, 475, 158, 528, 767, 758, 558, 561, 742, 559
678, 469, 468, 475, 521, 511, 509, 508, 770, 754, 740
679, 474, 14, 125, 13, 755, 444, 478, 479, 148, 136
680, 149, 14, 125, 474, 160, 444, 446, 723, 755, 478
681, 529, 127, 126, 151, 743, 138, 756, 540, 451, 450
682, 475, 135, 158, 159, 506, 466, 758, 741, 447, 170
683, 477, 153, 129, 152, 733, 457, 492, 757, 164, 453
684, 524, 152, 477, 128, 543, 757, 739, 765, 454, 493
685, 475, 158, 135, 134, 758, 466, 506, 507, 464, 146
686, 150, 126, 529, 472, 449, 756, 539, 769, 483, 737
687, 152, 151, 128, 524, 163, 452, 454, 543, 542, 765
688, 125, 126, 150, 472, 137, 449, 448, 484, 483, 769
689, 133, 132, 469, 522, 144, 503, 502, 768, 773, 774
690, 522, 156, 133, 132, 555, 462, 768, 773, 461, 144
691, 134, 475, 158, 522, 507, 758, 464, 775, 767, 558
692, 126, 150, 529, 151, 449, 539, 756, 450, 162, 540
693, 477, 129, 128, 152, 492, 140, 493, 757, 453, 454
694, 469, 521, 522, 520, 770, 564, 774, 771, 563, 565
695, 523, 473, 526, 520, 764, 744, 553, 569, 772, 568
696, 467, 469, 473, 520, 510, 504, 515, 434, 771, 772
697, 522, 132, 469, 473, 773, 503, 774, 776, 501, 504
698, 132, 156, 526, 522, 461, 554, 777, 773, 555, 557
699, 526, 473, 132, 522, 744, 501, 777, 557, 776, 773
700, 522, 158, 133, 157, 558, 463, 768, 556, 169, 465
701, 522, 133, 158, 134, 768, 463, 558, 775, 145, 464
702, 472, 125, 474, 709, 484, 478, 485, 778, 761, 725
703, 475, 134, 469, 522, 507, 505, 508, 767, 775, 774
704, 521, 522, 475, 469, 564, 767, 740, 770, 774, 508
705, 134, 133, 469, 522, 145, 502, 505, 775, 768, 774
706, 523, 526, 473, 711, 553, 744, 764, 713, 714, 730
707, 522, 473, 469, 520, 776, 504, 774, 565, 772, 771
708, 473, 522, 526, 520, 776, 557, 744, 772, 565, 568
709, 132, 155, 131, 473, 460, 459, 143, 501, 729, 498
710, 154, 131, 155, 711, 458, 459, 166, 712, 731, 715
711, 155, 156, 526, 132, 167, 554, 552, 460, 461, 777
712, 155, 132, 526, 473, 460, 777, 552, 729, 501, 744
713, 150, 149, 709, 525, 161, 724, 779, 537, 536, 766
714, 709, 149, 150, 125, 724, 161, 779, 761, 446, 448
715, 709, 472, 150, 525, 778, 769, 779, 766, 750, 537
716, 150, 472, 709, 125, 769, 778, 779, 448, 484, 761
717, 468, 709, 474, 527, 780, 725, 482, 759, 726, 722
718, 474, 709, 468, 472, 725, 780, 482, 485, 778, 513
719, 468, 521, 709, 527, 754, 781, 780, 759, 535, 726
720, 709, 521, 468, 472, 781, 754, 780, 778, 753, 513
721, 521, 525, 709, 527, 567, 766, 781, 535, 538, 726
722, 709, 525, 521, 472, 766, 567, 781, 778, 750, 753
723, 130, 711, 473, 131, 782, 730, 499, 142, 731, 498
724, 711, 130, 473, 523, 782, 499, 730, 713, 727, 764
725, 711, 130, 154, 131, 782, 456, 712, 731, 142, 458
726, 130, 711, 154, 523, 782, 712, 456, 727, 713, 549

** Define element set Eall
*ELSET, ELSET=Eall
Evolumes



***********************************************************
** Element sets for materials and FEM element type (solid, shell, beam, fluid)
*ELSET,ELSET=FEMPart002_MaterialSolid
Evolumes

** Physical constants for SI(mm) unit system with Kelvins
*PHYSICAL CONSTANTS, ABSOLUTE ZERO=0, STEFAN BOLTZMANN=5.670374419e-11

***********************************************************
** Materials
** see information about units at file end
** FreeCAD material name: CalculiX-Steel
** Material (FEMPart (LongPendulum001))
*MATERIAL, NAME=FEMPart002_Material
*ELASTIC
210000,0.3
*DENSITY
7.9E-09
*EXPANSION, ZERO=0
1.2E-05

***********************************************************
** Sections
*SOLID SECTION, ELSET=FEMPart002_MaterialSolid, MATERIAL=FEMPart002_Material

***********************************************************
** At least one step is needed to run an CalculiX analysis of FreeCAD
*STEP, INC=2000
*STATIC
1.0,1.0,1e-05,1.0

***********************************************************
** Automatic 3-2-1 constraints
** nodeXYZ 167: x=-19.7989898732, y=-5, z=28.2010101268
** nodeYZ 164: x=19.7989898732, y=-5, z=28.2010101268
** nodeZ 140: x=19.7989898732, y=5, z=28.2010101268
*BOUNDARY
167,1,1,0
167,2,2,0
167,3,3,0
164,2,2,0
164,3,3,0
140,3,3,0

***********************************************************
** MbDPart D'Alembert element loads
*DLOAD
15,GRAV,17161601.41322,0.8221326554288,1.253529788206E-14,0.5692959659769
16,GRAV,16786150.60749,0.8456494700241,9.587177370077E-15,0.5337386756157
17,GRAV,16115167.73627,0.8603352004499,7.631183052473E-15,0.5097286953535
18,GRAV,15303829.76643,0.8628871544964,7.281413115055E-15,0.5053966349365
19,GRAV,14564717.03088,0.8510199980855,8.8839502485E-15,0.5251332810426
20,GRAV,14120384.81736,0.825034957765,1.21839396149E-14,0.5650816918515
21,GRAV,14120384.7366,0.7910515145139,1.614365636902E-14,0.6117495413854
22,GRAV,14564716.81696,0.7610079514067,1.937206367586E-14,0.648742551322
23,GRAV,15303829.48832,0.7458668182829,2.091650525519E-14,0.66609510536
24,GRAV,16115167.47216,0.7492063966117,2.057979965985E-14,0.6623366027
25,GRAV,16786150.42188,0.7675493718996,1.868732231418E-14,0.6409898296358
26,GRAV,17161601.34676,0.7941714357452,1.579331109046E-14,0.6076937803256
27,GRAV,17265972.85498,0.8083800630743,1.416825977669E-14,0.5886609156585
28,GRAV,17161601.41322,0.8221326554288,1.253529788206E-14,0.5692959659769
29,GRAV,16786150.60749,0.845649470024,9.587177370077E-15,0.5337386756157
30,GRAV,16115167.73627,0.8603352004499,7.631183052473E-15,0.5097286953535
31,GRAV,15303829.76643,0.8628871544964,7.281413115055E-15,0.5053966349365
32,GRAV,14564717.03088,0.8510199980855,8.8839502485E-15,0.5251332810426
33,GRAV,14120384.81736,0.825034957765,1.21839396149E-14,0.5650816918515
34,GRAV,14120384.7366,0.7910515145139,1.614365636902E-14,0.6117495413854
35,GRAV,14564716.81696,0.7610079514067,1.937206367586E-14,0.648742551322
36,GRAV,15303829.48832,0.7458668182829,2.091650525519E-14,0.66609510536
37,GRAV,16115167.47216,0.7492063966117,2.057979965985E-14,0.6623366027
38,GRAV,16786150.42188,0.7675493718996,1.868732231418E-14,0.6409898296358
39,GRAV,17161601.34676,0.7941714357452,1.579331109046E-14,0.6076937803256
40,GRAV,16244900.91629,0.8142471687861,1.347958001822E-14,0.5805183443473
41,GRAV,16087216.08734,0.8243688078651,1.226420082089E-14,0.5660530616639
42,GRAV,15810377.38389,0.8304354481156,1.15187159038E-14,0.557114859354
43,GRAV,15484555.62041,0.8308866566929,1.14628753004E-14,0.5564416984103
44,GRAV,15196742.19791,0.8252864608984,1.2152671516E-14,0.5647143149043
45,GRAV,15028063.33198,0.8147186745157,1.342427759154E-14,0.5798564317099
46,GRAV,15028063.30162,0.8019463221892,1.491249927197E-14,0.597396096679
47,GRAV,15196742.1159,0.7907790652253,1.617343863674E-14,0.6121016827305
48,GRAV,15484555.51047,0.784624837102,1.685325608737E-14,0.6199708581882
49,GRAV,15810377.27621,0.7851269964015,1.679801120715E-14,0.6193348040612
50,GRAV,16087216.00987,0.7917714960225,1.606240685964E-14,0.6108174015909
51,GRAV,16244900.88821,0.8024315398413,1.485632523478E-14,0.5967441862875
52,GRAV,16244900.91629,0.8142471687861,1.347958001822E-14,0.5805183443473
53,GRAV,16087216.08734,0.8243688078651,1.226420082089E-14,0.5660530616639
54,GRAV,15810377.38389,0.8304354481156,1.15187159038E-14,0.557114859354
55,GRAV,15484555.62041,0.8308866566929,1.14628753004E-14,0.5564416984103
56,GRAV,15196742.19791,0.8252864608984,1.2152671516E-14,0.5647143149043
57,GRAV,15028063.33198,0.8147186745157,1.342427759154E-14,0.5798564317099
58,GRAV,15028063.30162,0.8019463221892,1.491249927197E-14,0.597396096679
59,GRAV,15196742.1159,0.7907790652253,1.617343863674E-14,0.6121016827305
60,GRAV,15484555.51047,0.784624837102,1.685325608737E-14,0.6199708581882
61,GRAV,15810377.27621,0.7851269964015,1.679801120715E-14,0.6193348040612
62,GRAV,16087216.00987,0.7917714960225,1.606240685964E-14,0.6108174015909
63,GRAV,16244900.88821,0.8024315398413,1.485632523478E-14,0.5967441862875
64,GRAV,16287767.65633,0.8083800659389,1.416864777311E-14,0.5886609117247
65,GRAV,16287767.65633,0.8083800659389,1.416864777311E-14,0.5886609117247
66,GRAV,16287767.65633,0.8083800659389,1.416864777311E-14,0.5886609117247
67,GRAV,9286246.047192,0.7817639820742,1.717067645986E-14,0.6235744352774
68,GRAV,14663091.47947,0.791704882906,1.607051476757E-14,0.610903739048
69,GRAV,9286246.047192,0.7817639820742,1.717067645986E-14,0.6235744352774
70,GRAV,3918424.033795,0.7427639859423,2.124803847892E-14,0.6695533296065
71,GRAV,9286246.170002,0.8334381736927,1.11496509435E-14,0.5526127130565
72,GRAV,14663091.55725,0.8244305394678,1.225735408016E-14,0.5659631486173
73,GRAV,9286246.170002,0.8334381736927,1.11496509435E-14,0.5526127130565
74,GRAV,3918424.32484,0.8652262575227,6.978851535144E-15,0.5013816144348
75,GRAV,3897168.473354,0.8083802266955,1.419042145827E-14,0.5886606909653
76,GRAV,14657425.65857,0.8083800715629,1.416940951849E-14,0.5886609040015
77,GRAV,3897168.473354,0.8083802266955,1.419042145827E-14,0.5886606909653
78,GRAV,14657425.65857,0.8083800715629,1.416940951849E-14,0.5886609040015
79,GRAV,6053703.511202,0.860267895714,7.651888773266E-15,0.5098422771837
80,GRAV,5674480.307732,0.9389983725546,-5.207403695426E-15,0.3439215845798
81,GRAV,4949369.189104,0.9830087366158,-1.670615349355E-14,0.1835587746119
82,GRAV,3949816.573187,0.9982028173001,-2.502570003966E-14,0.05992608392057
83,GRAV,2810262.688046,0.9991451399446,-2.622698742228E-14,0.04133992410566
84,GRAV,1857409.864919,0.9501318068849,-7.534767733119E-15,0.3118486003585
85,GRAV,1857409.00533,0.5884439474165,3.460878037259E-14,0.8085380144118
86,GRAV,2810261.135871,0.3460390500567,4.987231762796E-14,0.9382201105475
87,GRAV,3949815.064603,0.3634384625142,4.893642979977E-14,0.9316182071886
88,GRAV,4949367.985188,0.4764385763606,4.231890852745E-14,0.8792077586984
89,GRAV,5674479.539024,0.6155502962291,3.248045026275E-14,0.7880976036077
90,GRAV,6053703.247461,0.7492940257258,2.058245557894E-14,0.6622374672363
91,GRAV,6179647.270218,0.808380148644,1.417984977213E-14,0.5886607981497
92,GRAV,6053703.511202,0.860267895714,7.651888773266E-15,0.5098422771837
93,GRAV,5674480.307732,0.9389983725546,-5.207403695426E-15,0.3439215845798
94,GRAV,4949369.189104,0.9830087366158,-1.670615349355E-14,0.1835587746119
95,GRAV,3949816.573187,0.9982028173001,-2.502570003966E-14,0.05992608392057
96,GRAV,2810262.688046,0.9991451399446,-2.622698742229E-14,0.04133992410567
97,GRAV,1857409.864919,0.9501318068849,-7.534767733119E-15,0.3118486003585
98,GRAV,1857409.00533,0.5884439474164,3.460878037259E-14,0.8085380144118
99,GRAV,2810261.135871,0.3460390500567,4.987231762796E-14,0.9382201105475
100,GRAV,3949815.064603,0.3634384625141,4.893642979977E-14,0.9316182071886
101,GRAV,4949367.985188,0.4764385763606,4.231890852745E-14,0.8792077586984
102,GRAV,5674479.539024,0.6155502962291,3.248045026276E-14,0.7880976036077
103,GRAV,6053703.247461,0.7492940257258,2.058245557894E-14,0.6622374672363
104,GRAV,17195311.78934,0.8175812613881,1.308264269297E-14,0.5758132345015
105,GRAV,17195311.74512,0.7989769924687,1.525039340427E-14,0.6013615929752
106,GRAV,17128979.71239,0.8266494220661,1.198503676276E-14,0.5627172762567
107,GRAV,17128979.62362,0.7892967939065,1.633732744663E-14,0.6140118656255
108,GRAV,16879123.36058,0.8422861676675,1.002197366568E-14,0.5390306222804
109,GRAV,15983424.03937,0.8618959050718,7.417483581952E-15,0.5070852480801
110,GRAV,16693845.16524,0.8490162967656,9.14717221459E-15,0.5283666604039
111,GRAV,16247060.8327,0.8587919097765,7.841344705357E-15,0.512324560901
112,GRAV,15165039.33957,0.8621290180571,7.385831169766E-15,0.5066888159648
113,GRAV,15442653.92532,0.8636297769793,7.178856292124E-15,0.504126579655
114,GRAV,14671773.44258,0.8542806419046,8.450164338079E-15,0.5198120668733
115,GRAV,14161336.54064,0.8303747276332,1.152706705527E-14,0.5572053586499
116,GRAV,14458236.26231,0.8476773143497,9.323789140329E-15,0.5305121777461
117,GRAV,14080719.01683,0.7968698158499,1.549070785654E-14,0.6041510544453
118,GRAV,14080719.07082,0.8195892661402,1.284346027373E-14,0.5729515117597
119,GRAV,14671773.21125,0.7569445023301,1.979167371269E-14,0.653479165997
120,GRAV,14161336.43326,0.7851945009031,1.679142179786E-14,0.6192492194194
121,GRAV,14458236.06606,0.7651011155963,1.894548503447E-14,0.6439101512737
122,GRAV,15165039.06563,0.7468639034083,2.081640667258E-14,0.6649769242505
123,GRAV,16247060.577,0.7512032185883,2.037747092896E-14,0.6600709995013
124,GRAV,15442653.64311,0.7448860286544,2.101475866379E-14,0.6671917298015
125,GRAV,15983423.76671,0.7471696353346,2.078527331715E-14,0.6646333846821
126,GRAV,16693844.96193,0.7634701692342,1.911492102872E-14,0.6458430929332
127,GRAV,16879123.19247,0.7715534532862,1.826367845461E-14,0.6361644981623
128,GRAV,17000062.59889,0.8208174750873,1.269425019153E-14,0.5711905746696
129,GRAV,16994433.60317,0.7955124618906,1.564254255179E-14,0.6059372269277
130,GRAV,16866287.40731,0.8083271026858,1.417458345516E-14,0.5887336367693
131,GRAV,16388940.4491,0.8155570677853,1.33241571783E-14,0.5786766533959
132,GRAV,16383296.72168,0.8010228612146,1.501754111982E-14,0.5986337576612
133,GRAV,16540219.0091,0.8083260595169,1.417483547507E-14,0.5887350690301
134,GRAV,16655654.00339,0.8420848899715,1.004793764229E-14,0.539345008396
135,GRAV,16712032.34781,0.8295500563449,1.162798265844E-14,0.5584323629753
136,GRAV,16054143.22561,0.8550101986909,8.351807906532E-15,0.518611183966
137,GRAV,16279689.25962,0.8449412399624,9.679339268797E-15,0.53485914128
138,GRAV,15335327.66981,0.8572776740667,8.046915281719E-15,0.5148543381839
139,GRAV,15684526.43963,0.8517667293745,8.784491587261E-15,0.52392121424
140,GRAV,14673499.4093,0.8464714563341,9.481146172619E-15,0.5324341026001
141,GRAV,15059431.43457,0.8480403247985,9.275954817541E-15,0.5299317008026
142,GRAV,14283801.41468,0.8229756571115,1.243444910899E-14,0.5680766390214
143,GRAV,14582025.52912,0.8324502054508,1.126872037377E-14,0.554099860535
144,GRAV,14290437.85167,0.7932230010146,1.590098488795E-14,0.6089312528204
145,GRAV,14414209.23508,0.8083284300199,1.417555484167E-14,0.5887318143447
146,GRAV,14674629.83633,0.7668117959075,1.876588418001E-14,0.6418720041076
147,GRAV,14589957.7913,0.7830779499288,1.702299741547E-14,0.6219235679208
148,GRAV,15331565.49091,0.7529531242317,2.01998939227E-14,0.6580741544155
149,GRAV,15056702.29195,0.7647168966794,1.898539452461E-14,0.6443664081352
150,GRAV,16053359.42905,0.7559928334425,1.988875707069E-14,0.6545798925903
151,GRAV,15679928.46532,0.7598658761852,1.94898561318E-14,0.6500798798681
152,GRAV,16654726.81317,0.7717790899792,1.823977921568E-14,0.6358907424007
153,GRAV,16277964.98065,0.7683550893648,1.860260487866E-14,0.6400237938134
154,GRAV,16705495.51918,0.7860346346669,1.669787597519E-14,0.6181824593953
155,GRAV,16189834.2081,0.8278780119123,1.183448416011E-14,0.5609081898067
156,GRAV,16424533.48148,0.8243291857817,1.226888474125E-14,0.5661107607778
157,GRAV,15851610.38843,0.8350249831695,1.094564420098E-14,0.5502120295692
158,GRAV,16100924.91282,0.8358127967658,1.084636530307E-14,0.5490145433069
159,GRAV,15456366.15847,0.8359180670198,1.083338497016E-14,0.5488542477106
160,GRAV,15662507.95056,0.8407091689808,1.022477883347E-14,0.541486927997
161,GRAV,15095120.3355,0.8293120483249,1.16581242961E-14,0.5587857608271
162,GRAV,15204884.8629,0.8376630714674,1.061291815526E-14,0.5461873110022
163,GRAV,14889014.01,0.8161124265919,1.325880412406E-14,0.5778931624118
164,GRAV,14858321.61362,0.82587467056,1.208093189566E-14,0.5638537297274
165,GRAV,14895636.865,0.8004583052438,1.508268949694E-14,0.5993884396335
166,GRAV,14740277.6334,0.8083295712022,1.417525055943E-14,0.5887302474989
167,GRAV,15096431.12601,0.7866061833697,1.663565634316E-14,0.6174550285523
168,GRAV,14866309.03291,0.7903319697494,1.622334954517E-14,0.6126788535539
169,GRAV,15452426.58949,0.7787719008008,1.749052344757E-14,0.6273072026712
170,GRAV,15202181.88453,0.7770027018472,1.768151160845E-14,0.6294972607742
171,GRAV,15850797.26918,0.7799357208717,1.736434318859E-14,0.6258596258814
172,GRAV,15657801.97466,0.7731983292048,1.808903070761E-14,0.6341642876376
173,GRAV,16188899.42559,0.787941342876,1.648780047243E-14,0.6157503066883
174,GRAV,16099182.39031,0.7790266302227,1.746268542729E-14,0.6269908367783
175,GRAV,16417978.26614,0.7917416222945,1.606560105517E-14,0.6108561234255
176,GRAV,17000062.59889,0.8208174750873,1.269425019153E-14,0.5711905746696
177,GRAV,16994433.60317,0.7955124618906,1.564254255179E-14,0.6059372269277
178,GRAV,16866287.40731,0.8083271026858,1.417458345516E-14,0.5887336367693
179,GRAV,16388940.4491,0.8155570677853,1.33241571783E-14,0.5786766533959
180,GRAV,16383296.72168,0.8010228612146,1.501754111982E-14,0.5986337576612
181,GRAV,16540219.0091,0.8083260595169,1.417483547507E-14,0.5887350690301
182,GRAV,16655654.00339,0.8420848899715,1.004793764229E-14,0.539345008396
183,GRAV,16712032.34781,0.8295500563449,1.162798265844E-14,0.5584323629753
184,GRAV,16054143.22561,0.8550101986909,8.351807906532E-15,0.518611183966
185,GRAV,16279689.25962,0.8449412399624,9.679339268797E-15,0.53485914128
186,GRAV,15335327.66981,0.8572776740667,8.046915281719E-15,0.5148543381839
187,GRAV,15684526.43963,0.8517667293745,8.784491587261E-15,0.52392121424
188,GRAV,14673499.4093,0.8464714563341,9.481146172619E-15,0.5324341026001
189,GRAV,15059431.43457,0.8480403247985,9.275954817541E-15,0.5299317008026
190,GRAV,14283801.41468,0.8229756571115,1.243444910899E-14,0.5680766390214
191,GRAV,14582025.52912,0.8324502054508,1.126872037377E-14,0.554099860535
192,GRAV,14290437.85167,0.7932230010146,1.590098488795E-14,0.6089312528204
193,GRAV,14414209.23508,0.8083284300199,1.417555484167E-14,0.5887318143447
194,GRAV,14674629.83633,0.7668117959075,1.876588418001E-14,0.6418720041076
195,GRAV,14589957.7913,0.7830779499288,1.702299741547E-14,0.6219235679208
196,GRAV,15331565.49091,0.7529531242317,2.01998939227E-14,0.6580741544155
197,GRAV,15056702.29195,0.7647168966794,1.898539452461E-14,0.6443664081352
198,GRAV,16053359.42905,0.7559928334425,1.988875707069E-14,0.6545798925903
199,GRAV,15679928.46532,0.7598658761852,1.948985613181E-14,0.6500798798681
200,GRAV,16654726.81317,0.7717790899792,1.823977921568E-14,0.6358907424007
201,GRAV,16277964.98065,0.7683550893648,1.860260487866E-14,0.6400237938134
202,GRAV,16705495.51918,0.7860346346669,1.669787597519E-14,0.6181824593953
203,GRAV,16189834.2081,0.8278780119123,1.183448416011E-14,0.5609081898067
204,GRAV,16424533.48148,0.8243291857817,1.226888474125E-14,0.5661107607778
205,GRAV,15851610.38843,0.8350249831695,1.094564420098E-14,0.5502120295692
206,GRAV,16100924.91282,0.8358127967658,1.084636530307E-14,0.5490145433069
207,GRAV,15456366.15847,0.8359180670198,1.083338497016E-14,0.5488542477106
208,GRAV,15662507.95056,0.8407091689808,1.022477883347E-14,0.541486927997
209,GRAV,15095120.3355,0.8293120483249,1.16581242961E-14,0.5587857608271
210,GRAV,15204884.8629,0.8376630714674,1.061291815526E-14,0.5461873110022
211,GRAV,14889014.01,0.8161124265919,1.325880412406E-14,0.5778931624118
212,GRAV,14858321.61362,0.82587467056,1.208093189566E-14,0.5638537297274
213,GRAV,14895636.865,0.8004583052438,1.508268949694E-14,0.5993884396335
214,GRAV,14740277.6334,0.8083295712022,1.417525055943E-14,0.5887302474989
215,GRAV,15096431.12601,0.7866061833697,1.663565634316E-14,0.6174550285523
216,GRAV,14866309.03291,0.7903319697494,1.622334954517E-14,0.6126788535539
217,GRAV,15452426.58949,0.7787719008008,1.749052344757E-14,0.6273072026712
218,GRAV,15202181.88453,0.7770027018472,1.768151160845E-14,0.6294972607742
219,GRAV,15850797.26918,0.7799357208717,1.736434318859E-14,0.6258596258814
220,GRAV,15657801.97466,0.7731983292048,1.808903070761E-14,0.6341642876376
221,GRAV,16188899.42559,0.787941342876,1.648780047243E-14,0.6157503066883
222,GRAV,16099182.39031,0.7790266302227,1.746268542729E-14,0.6269908367783
223,GRAV,16417978.26614,0.7917416222945,1.606560105517E-14,0.6108561234255
224,GRAV,16252074.52054,0.8143130724827,1.347177379212E-14,0.5804258953422
225,GRAV,16252074.49215,0.8023637834845,1.486409294377E-14,0.596835286283
226,GRAV,16280457.85869,0.8063409517152,1.440559938607E-14,0.5914509866311
227,GRAV,16280457.86836,0.8104095261244,1.393153318269E-14,0.5858638066708
228,GRAV,16253734.20991,0.8140659878096,1.350102135133E-14,0.5807723887132
229,GRAV,16253734.1827,0.8026177050692,1.483496375703E-14,0.5964937715596
230,GRAV,16282163.81531,0.810160968404,1.396064322987E-14,0.586207476304
231,GRAV,16282163.80683,0.8065917337204,1.437652686999E-14,0.5911089367401
232,GRAV,16085864.55591,0.8247874631342,1.221317040647E-14,0.5654428712581
233,GRAV,16172317.77368,0.8212664956083,1.264040578489E-14,0.5705447775514
234,GRAV,16233515.4323,0.8175429713,1.308760249544E-14,0.5758675976976
235,GRAV,15810129.0073,0.8307107600021,1.148456229761E-14,0.5567042601029
236,GRAV,15954704.8031,0.8285157571139,1.175602484006E-14,0.5599657491437
237,GRAV,15482922.84697,0.831146205258,1.143063529023E-14,0.556053941165
238,GRAV,15646174.83796,0.8317102813846,1.136040503588E-14,0.5552098772889
239,GRAV,15191661.372,0.8254867252651,1.212820601463E-14,0.5644215325544
240,GRAV,15326910.66035,0.8290540290572,1.168988922328E-14,0.5591685049285
241,GRAV,15020930.06343,0.8147956645819,1.341515326965E-14,0.5797482427558
242,GRAV,15087058.84492,0.8206331378151,1.271730572892E-14,0.5714553815651
243,GRAV,15020930.03271,0.8018669888878,1.492158959215E-14,0.5975025791844
244,GRAV,14998308.07317,0.8083800702859,1.416923655478E-14,0.5886609057552
245,GRAV,15191661.289,0.7905618899059,1.619761278894E-14,0.6123821504815
246,GRAV,15087058.78582,0.795766328969,1.561476134864E-14,0.6056037893534
247,GRAV,15482922.73572,0.7843354695962,1.688497522693E-14,0.6203369013152
248,GRAV,15326910.55959,0.7866574668032,1.662989411215E-14,0.6173896904896
249,GRAV,15810128.89824,0.7848207282672,1.683162272106E-14,0.6197228610291
250,GRAV,15646174.72387,0.7837052999326,1.695389728505E-14,0.6211328383346
251,GRAV,16085864.47637,0.7913192725099,1.611285036629E-14,0.6114031476484
252,GRAV,15954704.70504,0.7872509922626,1.656415380408E-14,0.6166326906526
253,GRAV,16172317.71148,0.7950940915934,1.568998801388E-14,0.6064860967189
254,GRAV,16233515.38827,0.7990169835989,1.524623197431E-14,0.6013084565517
255,GRAV,16085864.55591,0.8247874631342,1.221317040647E-14,0.5654428712581
256,GRAV,16172317.77368,0.8212664956083,1.264040578489E-14,0.5705447775514
257,GRAV,16235136.45845,0.8172972203385,1.311695399912E-14,0.5762163253736
258,GRAV,15810129.0073,0.8307107600021,1.148456229761E-14,0.5567042601029
259,GRAV,15954704.8031,0.8285157571139,1.175602484006E-14,0.5599657491437
260,GRAV,15482922.84697,0.831146205258,1.143063529023E-14,0.556053941165
261,GRAV,15646174.83796,0.8317102813846,1.136040503588E-14,0.5552098772889
262,GRAV,15191661.372,0.8254867252651,1.212820601463E-14,0.5644215325544
263,GRAV,15326910.66035,0.8290540290572,1.168988922328E-14,0.5591685049285
264,GRAV,15020930.06343,0.8147956645819,1.341515326965E-14,0.5797482427558
265,GRAV,15087058.84492,0.8206331378151,1.271730572892E-14,0.5714553815651
266,GRAV,15020930.03271,0.8018669888878,1.492158959215E-14,0.5975025791844
267,GRAV,14998308.07317,0.8083800702859,1.416923655478E-14,0.5886609057552
268,GRAV,15191661.289,0.7905618899059,1.619761278894E-14,0.6123821504815
269,GRAV,15087058.78582,0.795766328969,1.561476134864E-14,0.6056037893534
270,GRAV,15482922.73572,0.7843354695962,1.688497522693E-14,0.6203369013152
271,GRAV,15326910.55959,0.7866574668032,1.662989411215E-14,0.6173896904896
272,GRAV,15810128.89824,0.7848207282672,1.683162272106E-14,0.6197228610291
273,GRAV,15646174.72387,0.7837052999326,1.695389728505E-14,0.6211328383346
274,GRAV,16085864.47637,0.7913192725099,1.611285036629E-14,0.6114031476485
275,GRAV,15954704.70503,0.7872509922626,1.656415380408E-14,0.6166326906526
276,GRAV,16172317.71148,0.7950940915934,1.568998801388E-14,0.6064860967189
277,GRAV,16235136.41561,0.7992734410162,1.521706666209E-14,0.6009675253174
278,GRAV,16282163.81531,0.810160968404,1.396064322987E-14,0.586207476304
279,GRAV,16282163.80683,0.8065917337204,1.437652686999E-14,0.5911089367401
280,GRAV,16261290.96149,0.8030345459541,1.478710084527E-14,0.5959324777224
281,GRAV,16262958.42911,0.8032878710456,1.475798896643E-14,0.5955909638594
282,GRAV,16261290.98674,0.813659743319,1.354906352085E-14,0.5813413989232
283,GRAV,16262958.45317,0.8134124763671,1.357828012411E-14,0.5816873243336
284,GRAV,7495011.431864,0.7751720278283,1.788572221709E-14,0.6317502095548
285,GRAV,11078173.64487,0.7861749098457,1.668583344577E-14,0.6180040542983
286,GRAV,7495011.584023,0.8391958437603,1.042573031091E-14,0.543829325998
287,GRAV,11078173.74782,0.8294906485228,1.163872676351E-14,0.5585206030337
288,GRAV,7485153.94781,0.797562264165,1.541933792477E-14,0.6032366324918
289,GRAV,11071506.91301,0.8155428594737,1.332911705634E-14,0.5786966773375
290,GRAV,7485153.94781,0.797562264165,1.541933792477E-14,0.6032366324918
291,GRAV,11071506.91301,0.8155428594737,1.332911705634E-14,0.5786966773375
292,GRAV,3906629.634383,0.7654784542759,1.892681016497E-14,0.643461526464
293,GRAV,3897168.473354,0.8083802266955,1.419042145827E-14,0.5886606909653
294,GRAV,3897168.473354,0.8083802266955,1.419042145827E-14,0.5886606909653
295,GRAV,3906629.828999,0.8473664511013,9.385298938385E-15,0.5310085663603
296,GRAV,14659944.06289,0.7973303058085,1.543830181181E-14,0.6035431910305
297,GRAV,14657425.65857,0.8083800715629,1.416940951849E-14,0.5886609040015
298,GRAV,14657425.65857,0.8083800715629,1.416940951849E-14,0.5886609040015
299,GRAV,14659944.11475,0.8191520942242,1.289564890693E-14,0.5735763650362
300,GRAV,6089609.635739,0.8435744742508,9.867682417964E-15,0.5370122032063
301,GRAV,6089609.460948,0.7700281177175,1.843723194699E-14,0.6380099512738
302,GRAV,6024023.486634,0.8762539400066,5.40406225266E-15,0.4818495954371
303,GRAV,6024023.133247,0.7275597629501,2.272976235833E-14,0.6860443071231
304,GRAV,5581506.331694,0.9491584510747,-7.358545256767E-15,0.3147987210163
305,GRAV,5772676.387521,0.9283253180857,-3.122789377987E-15,0.3717688849285
306,GRAV,4801301.644833,0.9875479263391,-1.851046680121E-14,0.1573184451467
307,GRAV,5100741.645638,0.9780991022032,-1.499693835797E-14,0.2081397277533
308,GRAV,4137917.497066,0.9972356234043,-2.408192133003E-14,0.07430418166892
309,GRAV,3003605.011855,0.9995939876979,-2.706194007628E-14,0.02849315282934
310,GRAV,3762617.810945,0.9990271445141,-2.605761489377E-14,0.04409948439506
311,GRAV,1758267.07524,0.9165941737566,-9.501490757897E-16,0.3998188597795
312,GRAV,2617453.297487,0.9984266403903,-2.526351456404E-14,0.05607355668228
313,GRAV,1971291.907568,0.9729411548473,-1.335149193134E-14,0.2310530441359
314,GRAV,1758266.469867,0.6618727257811,2.872977059646E-14,0.749616231726
315,GRAV,2617451.779821,0.3598409076837,4.914389627298E-14,0.933013676833
316,GRAV,1971290.82766,0.5185503522476,3.959371556603E-14,0.8550470935474
317,GRAV,3762616.265205,0.3486289728458,4.972615358929E-14,0.9372608171115
318,GRAV,3003603.429883,0.3339501991135,5.049824210987E-14,0.942590719513
319,GRAV,5100740.505407,0.4983257896889,4.090578063134E-14,0.8669898542261
320,GRAV,4137916.022596,0.3768255267441,4.82076629568E-14,0.9262842557196
321,GRAV,4801300.374088,0.4528583849646,4.379103857588E-14,0.8915824601052
322,GRAV,5581505.480379,0.5909520949584,3.437930962888E-14,0.8067066514318
323,GRAV,5772675.69938,0.6387770520573,3.061509167791E-14,0.7693918882891
324,GRAV,5859631.654061,0.8573996411137,8.04220257832E-15,0.5146511978205
325,GRAV,5717684.274833,0.7558390592945,1.991710181058E-14,0.65475744856
326,GRAV,5558187.106375,0.8123133524709,1.372113551825E-14,0.5832212422378
327,GRAV,5378881.180585,0.9279625388366,-3.053180434678E-15,0.372673485126
328,GRAV,5413360.399341,0.886336653036,3.914826458217E-15,0.4630413993208
329,GRAV,4823847.236588,0.9768357264461,-1.458594806961E-14,0.2139905688073
330,GRAV,4916179.817416,0.9465251812397,-6.780160145717E-15,0.3226299447962
331,GRAV,3860247.535669,0.9896114255537,-1.942878812299E-14,0.1437679603163
332,GRAV,4270677.732565,0.9736762104073,-1.360208927583E-14,0.2279355989901
333,GRAV,2855408.44335,0.9940624021545,-2.177701305708E-14,0.1088114912264
334,GRAV,3350113.593104,0.9816659146652,-1.6206812202E-14,0.1906096324549
335,GRAV,2151792.283249,0.9197629249328,-1.521881822198E-15,0.3924744092538
336,GRAV,2623375.398466,0.9570081002945,-9.14091181501E-15,0.2900611934933
337,GRAV,2295558.818536,0.6054015906974,3.330194373001E-14,0.7959201680954
338,GRAV,2483730.022328,0.7644918805275,1.904646497505E-14,0.6446333567289
339,GRAV,2896508.370792,0.4520572578656,4.385543032553E-14,0.8919889212378
340,GRAV,4041704.099497,0.461588975078,4.325655329913E-14,0.8870939172864
341,GRAV,3590756.955757,0.5359383560343,3.837694716622E-14,0.844257116364
342,GRAV,4735040.91432,0.5238904681172,3.919815289728E-14,0.8517856405316
343,GRAV,5503173.565954,0.6291521882961,3.139773644151E-14,0.7772821392276
344,GRAV,4967142.12715,0.6064041386797,3.319808129086E-14,0.7951566013007
345,GRAV,5386433.28342,0.7036560488259,2.498591597725E-14,0.7105407553059
346,GRAV,4405994.665162,0.7390781093767,2.161088086305E-14,0.6736197356374
347,GRAV,4559482.83734,0.8305678120147,1.151972324985E-14,0.5569175070378
348,GRAV,3778510.26674,0.6933442737859,2.593506476265E-14,0.7206064931766
349,GRAV,3448721.529985,0.8827658697288,4.461798476831E-15,0.469813174828
350,GRAV,3243082.705826,0.7751353917919,1.790917811273E-14,0.6317951601521
351,GRAV,4126660.798389,0.891999510227,3.055501385587E-15,0.4520363633104
352,GRAV,4837483.346848,0.6904330152109,2.619075979328E-14,0.7233963308635
353,GRAV,5085531.594765,0.843373634181,9.897226928468E-15,0.537327565986
354,GRAV,3154679.411546,0.9385516778308,-5.101132628831E-15,0.345138737381
355,GRAV,4374701.147581,0.9370786358399,-4.814555384404E-15,0.3491183613797
356,GRAV,5859631.654061,0.8573996411137,8.042202578321E-15,0.5146511978205
357,GRAV,5717684.274833,0.7558390592945,1.991710181058E-14,0.65475744856
358,GRAV,5558187.106375,0.8123133524709,1.372113551825E-14,0.5832212422378
359,GRAV,5378881.180585,0.9279625388366,-3.053180434678E-15,0.372673485126
360,GRAV,5413360.399341,0.886336653036,3.914826458217E-15,0.4630413993208
361,GRAV,4823847.236588,0.9768357264461,-1.458594806961E-14,0.2139905688073
362,GRAV,4916179.817416,0.9465251812397,-6.780160145717E-15,0.3226299447962
363,GRAV,3860247.535669,0.9896114255537,-1.942878812299E-14,0.1437679603163
364,GRAV,4270677.732564,0.9736762104073,-1.360208927583E-14,0.2279355989901
365,GRAV,2855408.443349,0.9940624021545,-2.177701305708E-14,0.1088114912264
366,GRAV,3350113.593104,0.9816659146652,-1.6206812202E-14,0.1906096324549
367,GRAV,2151792.283249,0.9197629249328,-1.521881822198E-15,0.3924744092538
368,GRAV,2623375.398466,0.9570081002945,-9.14091181501E-15,0.2900611934933
369,GRAV,2295558.818536,0.6054015906974,3.330194373001E-14,0.7959201680954
370,GRAV,2483730.022328,0.7644918805275,1.904646497505E-14,0.6446333567289
371,GRAV,2896508.370792,0.4520572578656,4.385543032554E-14,0.8919889212378
372,GRAV,4041704.099497,0.461588975078,4.325655329913E-14,0.8870939172864
373,GRAV,3590756.955757,0.5359383560342,3.837694716622E-14,0.844257116364
374,GRAV,4735040.91432,0.5238904681172,3.919815289729E-14,0.8517856405317
375,GRAV,5503173.565954,0.6291521882961,3.139773644151E-14,0.7772821392276
376,GRAV,4967142.12715,0.6064041386797,3.319808129086E-14,0.7951566013007
377,GRAV,5386433.28342,0.7036560488259,2.498591597725E-14,0.7105407553059
378,GRAV,4405994.665162,0.7390781093767,2.161088086305E-14,0.6736197356374
379,GRAV,4559482.837339,0.8305678120147,1.151972324985E-14,0.5569175070378
380,GRAV,3778510.26674,0.6933442737859,2.593506476265E-14,0.7206064931766
381,GRAV,3448721.529985,0.8827658697288,4.461798476831E-15,0.469813174828
382,GRAV,3243082.705826,0.7751353917919,1.790917811273E-14,0.6317951601521
383,GRAV,4126660.798389,0.891999510227,3.055501385587E-15,0.4520363633104
384,GRAV,4837483.346848,0.6904330152109,2.619075979328E-14,0.7233963308635
385,GRAV,5085531.594765,0.8433736341809,9.897226928468E-15,0.537327565986
386,GRAV,3154679.411546,0.9385516778308,-5.101132628831E-15,0.345138737381
387,GRAV,4374701.147581,0.9370786358399,-4.814555384404E-15,0.3491183613797
388,GRAV,16184236.67062,0.8570742796319,8.074009115976E-15,0.5151928563107
389,GRAV,15986207.51069,0.8593967939251,7.75919867478E-15,0.5113092514235
390,GRAV,14992108.68885,0.8289797870444,1.169921955408E-14,0.5592785644665
391,GRAV,14807834.72508,0.8136355463722,1.355259740636E-14,0.5813752640761
392,GRAV,14994080.84862,0.7870921323387,1.658213047529E-14,0.6168354522971
393,GRAV,15522902.95589,0.8386595839965,1.048626481938E-14,0.5446559484397
394,GRAV,15938949.9524,0.7784924690394,1.752050284989E-14,0.6276539457766
395,GRAV,16485098.14824,0.793908550398,1.582308613959E-14,0.6080371811041
396,GRAV,14849078.82446,0.827331580907,1.190230218832E-14,0.5617138552981
397,GRAV,16418095.75674,0.7894369963766,1.632205565415E-14,0.6138315964105
398,GRAV,14779028.06248,0.8226881241585,1.246905967913E-14,0.5684929642208
399,GRAV,15637686.29571,0.8417214729217,1.009505132806E-14,0.5399119947014
400,GRAV,14856059.32157,0.7888731705334,1.638528832767E-14,0.6145560355351
401,GRAV,14712971.83321,0.8093139417537,1.406043049685E-14,0.5873763220313
402,GRAV,16200468.099,0.7802195706792,1.733340736483E-14,0.6255057326109
403,GRAV,15771136.33832,0.8412811036554,1.01514803126E-14,0.5405979140104
404,GRAV,14790014.7459,0.793685615805,1.584887067741E-14,0.6083281542591
405,GRAV,14718323.85101,0.8039336127158,1.468441545692E-14,0.5947190482452
406,GRAV,16085236.43004,0.777549632705,1.762218891522E-14,0.6288215714178
407,GRAV,16274327.44681,0.7873939881833,1.654823254641E-14,0.6164500850619
408,GRAV,16377074.45299,0.8084258040058,1.416328071489E-14,0.5885980966819
409,GRAV,16360958.40497,0.8018246531255,1.492582919612E-14,0.5975593908894
410,GRAV,16362410.9943,0.8059774000497,1.444767519527E-14,0.5919463072011
411,GRAV,15607849.11481,0.7615806090087,1.931210013134E-14,0.6480701937151
412,GRAV,16811292.92007,0.8047503926244,1.458931768652E-14,0.5936133468605
413,GRAV,15344787.00586,0.8333360534058,1.11576800836E-14,0.5527666977072
414,GRAV,15344787.00586,0.8333360534058,1.11576800836E-14,0.5527666977072
415,GRAV,15219394.37985,0.7845481869054,1.686178572352E-14,0.6200678530801
416,GRAV,15219394.37985,0.7845481869054,1.686178572352E-14,0.6200678530801
417,GRAV,16627523.18683,0.7846358850471,1.685154904717E-14,0.6199568758361
418,GRAV,16192198.56851,0.768630529687,1.85735727708E-14,0.6396929801343
419,GRAV,16455394.3976,0.8034382205757,1.474062192064E-14,0.5953881303135
420,GRAV,16341436.58517,0.7990161047407,1.524628646789E-14,0.6013096243742
421,GRAV,15584619.43798,0.8352497715105,1.091749283898E-14,0.5498707295281
422,GRAV,15584619.43798,0.8352497715105,1.091749283898E-14,0.5498707295281
423,GRAV,15717601.49354,0.7801360646914,1.734267756122E-14,0.6256098788925
424,GRAV,15717601.49354,0.7801360646914,1.734267756122E-14,0.6256098788925
425,GRAV,16344451.16835,0.8176843668008,1.307065857478E-14,0.5756668101337
426,GRAV,16089382.48992,0.8338782638756,1.108946462921E-14,0.551948404324
427,GRAV,16089382.48992,0.8338782638756,1.108946462921E-14,0.551948404324
428,GRAV,16340222.75605,0.7988249036674,1.526801796993E-14,0.6015636070116
429,GRAV,16053224.35168,0.8384322153324,1.051492508728E-14,0.545005890145
430,GRAV,15948559.36878,0.7828696485053,1.704509454726E-14,0.6221857547784
431,GRAV,15346090.28712,0.7564542943788,1.984171044368E-14,0.6540465583701
432,GRAV,15948559.36878,0.7828696485053,1.704509454726E-14,0.6221857547784
433,GRAV,15949171.93951,0.8324358409942,1.126985607481E-14,0.5541214403253
434,GRAV,15949171.93951,0.8324358409942,1.126985607481E-14,0.5541214403253
435,GRAV,16910881.31708,0.796191430125,1.556601142165E-14,0.6050447971808
436,GRAV,16589292.38756,0.7739061407314,1.801304728975E-14,0.6333003121255
437,GRAV,16023098.5539,0.7593752047603,1.954045209766E-14,0.6506529784726
438,GRAV,16307937.87886,0.8217174337226,1.258586677626E-14,0.5698951299286
439,GRAV,15017588.31729,0.8454316802774,9.61626027776E-15,0.5340835833307
440,GRAV,14659969.4378,0.833712426453,1.11109140199E-14,0.5521988681424
441,GRAV,15140581.05411,0.7652440315595,1.893016895424E-14,0.6437402986939
442,GRAV,16459385.94106,0.8047766064829,1.458643453203E-14,0.5935778075854
443,GRAV,15198399.11961,0.8347577348091,1.097953401146E-14,0.5506174027184
444,GRAV,15198399.11961,0.8347577348091,1.097953401146E-14,0.5506174027184
445,GRAV,15271384.72771,0.7787226367624,1.749593483363E-14,0.6273683567042
446,GRAV,15271384.72771,0.7787226367625,1.749593483363E-14,0.6273683567042
447,GRAV,14588531.83233,0.8291182310522,1.168232838234E-14,0.5590733037241
448,GRAV,15016402.75685,0.7680376562487,1.863665829901E-14,0.6404046834495
449,GRAV,15145511.40844,0.8474781712208,9.349487046115E-15,0.5308302452802
450,GRAV,16693582.75513,0.7891151790897,1.635763765419E-14,0.614245255684
451,GRAV,15743345.02092,0.7623130379783,1.923588839701E-14,0.6472084920088
452,GRAV,14462995.33123,0.811040256036,1.38584365753E-14,0.5849903444409
453,GRAV,14666860.38358,0.7817884787987,1.716359847075E-14,0.6235437229398
454,GRAV,16306455.00482,0.7713921110165,1.828105595532E-14,0.6363601268633
455,GRAV,14599487.88145,0.7867027873868,1.662526247831E-14,0.6173319401407
456,GRAV,14467963.43792,0.8055877058247,1.449366172242E-14,0.5924765381212
457,GRAV,15612856.49782,0.7758356345323,1.780678833531E-14,0.6309350744648
458,GRAV,15612856.49782,0.7758356345323,1.780678833531E-14,0.6309350744648
459,GRAV,16226890.18745,0.7914094054874,1.610274079459E-14,0.6112864736816
460,GRAV,16552510.04687,0.8022522292258,1.487675903426E-14,0.596985226536
461,GRAV,16099829.68781,0.8435192238876,9.863417172841E-15,0.5370989842963
462,GRAV,15698853.47823,0.8383538867607,1.05250326712E-14,0.5451263711776
463,GRAV,15698853.47823,0.8383538867607,1.05250326712E-14,0.5451263711776
464,GRAV,15015651.48372,0.8511905163477,8.861155049827E-15,0.5248568422719
465,GRAV,15013598.63881,0.760839700256,1.938928715764E-14,0.6489398666397
466,GRAV,16375147.63407,0.8043002849418,1.464140533595E-14,0.5942230655591
467,GRAV,15689080.47868,0.7556807013991,1.992093019756E-14,0.6549402091282
468,GRAV,16094674.73145,0.7818959036448,1.71512232456E-14,0.6234090116957
469,GRAV,16094674.73145,0.7818959036448,1.71512232456E-14,0.6234090116957
470,GRAV,16795694.33132,0.7843428812694,1.688359950366E-14,0.6203275301016
471,GRAV,16095985.31095,0.8332937712704,1.116262911936E-14,0.5528304358136
472,GRAV,16963012.72877,0.8072519816109,1.42996197398E-14,0.5902069452195
473,GRAV,16095985.31095,0.8332937712704,1.116262911936E-14,0.5528304358136
474,GRAV,16371009.2481,0.7934060708409,1.587948062343E-14,0.6086927030553
475,GRAV,14503910.78863,0.7807123607222,1.728071996882E-14,0.6248905582704
476,GRAV,16335646.41225,0.7650314217681,1.895189511762E-14,0.6439929531505
477,GRAV,14728293.22353,0.8441993042362,9.776168644723E-15,0.5360294159159
478,GRAV,14365579.26642,0.8219595964944,1.255750578087E-14,0.569545803014
479,GRAV,15351769.81409,0.854442982963,8.428107771645E-15,0.5195451749995
480,GRAV,14730026.48827,0.7696582381436,1.846563516074E-14,0.6384561037829
481,GRAV,14375531.0391,0.7942857972351,1.578172899299E-14,0.607544296583
482,GRAV,16419540.34194,0.8216889757256,1.258926056317E-14,0.5699361606102
483,GRAV,16236259.68539,0.8347124612183,1.098475163306E-14,0.5506860331323
484,GRAV,16236259.68539,0.8347124612183,1.098475163306E-14,0.5506860331323
485,GRAV,16261400.94708,0.8246617274966,1.222842822528E-14,0.5656262327742
486,GRAV,16375929.62811,0.8227980634266,1.245499282428E-14,0.568333833958
487,GRAV,16226890.18745,0.7914094054874,1.610274079459E-14,0.6112864736816
488,GRAV,16652268.30129,0.8454600679407,9.611842936919E-15,0.5340386442175
489,GRAV,16227592.47782,0.8246967823682,1.222416834925E-14,0.5655751206971
490,GRAV,16371009.2481,0.7934060708409,1.587948062343E-14,0.6086927030553
491,GRAV,14278228.3433,0.788347439344,1.644380745686E-14,0.6152302941824
492,GRAV,15220512.17934,0.7519667122153,2.030036138973E-14,0.6592010798839
493,GRAV,15428442.8009,0.7504267381546,2.04565954019E-14,0.6609536373019
494,GRAV,14725997.63551,0.8500918183382,9.006470030284E-15,0.5266345036118
495,GRAV,16167836.76116,0.7557602518824,1.991256304454E-14,0.6548484112179
496,GRAV,15969546.27741,0.7528154968223,2.021362619842E-14,0.6582315912688
497,GRAV,16459215.54225,0.8161052442228,1.325894352349E-14,0.5779033053652
498,GRAV,14567593.24257,0.7684238577944,1.859615441414E-14,0.6399412275923
499,GRAV,17011481.55115,0.7915079282966,1.609143621772E-14,0.6111588986864
500,GRAV,14726815.65944,0.7623416768334,1.923339775606E-14,0.6471747582862
501,GRAV,15223328.7054,0.8580844620517,7.937792454497E-15,0.513508574403
502,GRAV,17061570.24383,0.7988027858625,1.527024221917E-14,0.6015929764369
503,GRAV,16757573.63945,0.7737150640652,1.803339604781E-14,0.633533739937
504,GRAV,16617828.21727,0.7676795748053,1.867367656777E-14,0.6408338867654
505,GRAV,17062098.74022,0.8166509449296,1.319371504007E-14,0.5771319035936
506,GRAV,16342206.23645,0.8423191680118,1.001794704154E-14,0.5389790526542
507,GRAV,16915494.93711,0.8190902440182,1.290205609717E-14,0.5736646861662
508,GRAV,16473911.0517,0.8072184456318,1.430371076039E-14,0.5902528111173
509,GRAV,16242473.41349,0.8465648458616,9.468237736514E-15,0.5322856016758
510,GRAV,14497975.01135,0.8345037175991,1.101178784956E-14,0.5510023097168
511,GRAV,14311979.131,0.8083410649648,1.41741381334E-14,0.5887144661816
512,GRAV,15116663.71113,0.8284551021515,1.176389091839E-14,0.560055482715
513,GRAV,15459144.27972,0.7800242487946,1.735492293435E-14,0.6257492878881
514,GRAV,15459144.27972,0.7800242487946,1.735492293435E-14,0.6257492878881
515,GRAV,15116663.71113,0.8284551021515,1.176389091839E-14,0.560055482715
516,GRAV,16377247.59049,0.8110786419708,1.38530291758E-14,0.5849371218676
517,GRAV,16162447.0635,0.7885574939614,1.64196453514E-14,0.6149610383734
518,GRAV,14918420.92122,0.8158203659951,1.329353178133E-14,0.5783053954681
519,GRAV,14918420.92122,0.8158203659952,1.329353178133E-14,0.5783053954681
520,GRAV,15462105.3731,0.8348582281184,1.096678218603E-14,0.5504650206353
521,GRAV,15117653.14277,0.7874924780064,1.65378829071E-14,0.6163242629358
522,GRAV,15117653.14277,0.7874924780064,1.65378829071E-14,0.6163242629358
523,GRAV,15462105.3731,0.8348582281184,1.096678218603E-14,0.5504650206353
524,GRAV,16361651.87972,0.8136845849837,1.354608499653E-14,0.5813066283467
525,GRAV,16792036.01765,0.8403749861267,1.026703832407E-14,0.542005426811
526,GRAV,16162447.0635,0.7885574939614,1.64196453514E-14,0.6149610383734
527,GRAV,16163148.38435,0.8273184463025,1.190330479795E-14,0.5617332003786
528,GRAV,16163148.38435,0.8273184463025,1.190330479795E-14,0.5617332003786
529,GRAV,16302970.78356,0.8288056802026,1.172011224256E-14,0.5595365443507
530,GRAV,14923387.59947,0.8007728141646,1.504677280421E-14,0.5989681962299
531,GRAV,14923387.59947,0.8007728141646,1.504677280421E-14,0.5989681962299
532,GRAV,14218305.22477,0.797002661817,1.547560927935E-14,0.6039757917803
533,GRAV,14566734.4062,0.8450782379591,9.66237453041E-15,0.5346426579763
534,GRAV,15841050.04701,0.8340894248081,1.106310824743E-14,0.5516292517836
535,GRAV,15841050.04701,0.8340894248081,1.106310824743E-14,0.5516292517836
536,GRAV,15431251.44363,0.8592814613508,7.775147333884E-15,0.5115030500191
537,GRAV,14273244.65065,0.8274868373999,1.188352434411E-14,0.5614851146112
538,GRAV,14213333.11498,0.8194288179297,1.286266274653E-14,0.5731809595113
539,GRAV,17011619.45525,0.8235313194838,1.236572261024E-14,0.5672708046685
540,GRAV,16358305.29549,0.8152808121196,1.335698244719E-14,0.579065797116
541,GRAV,15840439.19378,0.7810050428573,1.724826916768E-14,0.6245247177106
542,GRAV,15840439.19378,0.7810050428573,1.724826916768E-14,0.6245247177106
543,GRAV,16457513.33876,0.8264246990027,1.201285101497E-14,0.5630472598977
544,GRAV,16815264.22191,0.8096788297084,1.401683758151E-14,0.5868732339458
545,GRAV,16524103.29529,0.82117888955,1.26508351314E-14,0.5706708607924
546,GRAV,16915494.93711,0.8190902440182,1.290205609717E-14,0.5736646861662
547,GRAV,16732313.99059,0.8256340256199,1.210952337465E-14,0.5642060401472
548,GRAV,16732313.99059,0.8256340256199,1.210952337465E-14,0.5642060401472
549,GRAV,16309530.38246,0.8283289161451,1.177890396923E-14,0.5602420964886
550,GRAV,16450906.63806,0.8268987826422,1.195471565516E-14,0.5623507831104
551,GRAV,16342206.23645,0.8423191680118,1.001794704154E-14,0.5389790526542
552,GRAV,16354071.91069,0.8013229396787,1.498324816714E-14,0.5982320171511
553,GRAV,16242473.41349,0.8465648458616,9.468237736514E-15,0.5322856016758
554,GRAV,16385634.93394,0.8495305928969,9.079651987434E-15,0.5275393556241
555,GRAV,16362901.97721,0.8135002905684,1.356786425266E-14,0.5815645082405
556,GRAV,16359541.12038,0.8150970691471,1.337879228073E-14,0.5793244064147
557,GRAV,16570713.52812,0.8096979680615,1.401469771661E-14,0.5868468288379
558,GRAV,16570713.52812,0.8096979680615,1.401469771661E-14,0.5868468288379
559,GRAV,16829952.23115,0.8300114050796,1.157083795908E-14,0.5577464185791
560,GRAV,16039766.48294,0.854208310434,8.459188696586E-15,0.5199309207823
561,GRAV,16624451.4959,0.8402035922043,1.028900770791E-14,0.5422710794861
562,GRAV,16355307.35965,0.8015127339445,1.496153642377E-14,0.5979777063778
563,GRAV,16815264.22191,0.8096788297084,1.401683758151E-14,0.5868732339458
564,GRAV,16039766.48294,0.854208310434,8.459188696586E-15,0.5199309207823
565,GRAV,16624451.4959,0.8402035922043,1.028900770791E-14,0.5422710794861
566,GRAV,16666917.76283,0.8307725919992,1.147652490012E-14,0.556611983686
567,GRAV,16666917.76283,0.8307725919992,1.147652490012E-14,0.556611983686
568,GRAV,15708313.46835,0.8570825701587,8.07309855787E-15,0.5151790639478
569,GRAV,15762611.47385,0.8517705361209,8.7839514559E-15,0.5239150253585
570,GRAV,15629440.8878,0.8522854706502,8.715659168098E-15,0.52307693174
571,GRAV,15685224.71741,0.8468830997208,9.426969241857E-15,0.5317791039589
572,GRAV,15762611.47385,0.8517705361209,8.7839514559E-15,0.5239150253584
573,GRAV,15818545.82192,0.8464074082354,9.488942086773E-15,0.5325359136098
574,GRAV,15548821.15324,0.771746770724,1.824369274946E-14,0.6359299661733
575,GRAV,15788738.34145,0.776713853428,1.771232484435E-14,0.629853625768
576,GRAV,15684579.73941,0.7723811955131,1.817611968894E-14,0.6351592625616
577,GRAV,15289505.21801,0.7738611486016,1.801842757954E-14,0.6333552894585
578,GRAV,15166225.78073,0.7766518666221,1.77192833618E-14,0.6299300580798
579,GRAV,15113770.49081,0.7825348978098,1.708201584471E-14,0.6226067247547
580,GRAV,15092191.16339,0.8367222358426,1.073205113478E-14,0.5476275194387
581,GRAV,15219167.80211,0.8388840629025,1.045785775462E-14,0.5443101404605
582,GRAV,15365256.30356,0.8374413083398,1.064094038504E-14,0.5465272683829
583,GRAV,14894894.84677,0.823151376898,1.241280270186E-14,0.5678219885765
584,GRAV,15037597.43106,0.82485227232,1.22057489291E-14,0.5653483252373
585,GRAV,14894894.84677,0.823151376898,1.241280270186E-14,0.5678219885765
586,GRAV,15037597.43106,0.82485227232,1.22057489291E-14,0.5653483252373
587,GRAV,14901069.33521,0.8109995212205,1.386298996159E-14,0.5850468157166
588,GRAV,14806699.80959,0.806661361562,1.436913510241E-14,0.5910139150333
589,GRAV,14806699.80959,0.806661361562,1.436913510241E-14,0.5910139150333
590,GRAV,14901069.33521,0.8109995212205,1.386298996159E-14,0.5850468157166
591,GRAV,14900901.94973,0.7932224787515,1.590072333359E-14,0.6089319331446
592,GRAV,15038614.29272,0.7914231057124,1.610175673118E-14,0.6112687361092
593,GRAV,15038614.29272,0.7914231057124,1.610175673118E-14,0.6112687361092
594,GRAV,14900901.94973,0.7932224787515,1.590072333359E-14,0.6089319331446
595,GRAV,16469766.6392,0.8058893118908,1.445782784271E-14,0.5920662268532
596,GRAV,16377074.45299,0.8084258040058,1.416328071489E-14,0.5885980966819
597,GRAV,16422384.49406,0.8201224848629,1.277820538892E-14,0.5721880021656
598,GRAV,16533988.79916,0.8201048982001,1.278027599759E-14,0.5722132084706
599,GRAV,16474504.7728,0.8135275761045,1.356459414359E-14,0.5815263389715
600,GRAV,16377247.59049,0.8110786419708,1.38530291758E-14,0.5849371218676
601,GRAV,16375975.96905,0.8112636563721,1.383130894662E-14,0.5846804938168
602,GRAV,16473254.91309,0.8137106122897,1.354296199365E-14,0.5812701948725
603,GRAV,11969096.41074,0.7982400189385,1.533692187142E-14,0.6023394990908
604,GRAV,6588020.806566,0.7991786738016,1.523791550382E-14,0.6010935429205
605,GRAV,6588020.806566,0.7991786738016,1.523791550382E-14,0.6010935429205
606,GRAV,6594321.841343,0.780222897055,1.734308514166E-14,0.6255015834601
607,GRAV,9282331.917985,0.7885556316074,1.642497137261E-14,0.6149634264412
608,GRAV,11971264.95702,0.8231480867706,1.241503259359E-14,0.5678267581278
609,GRAV,9277297.065961,0.8083801041467,1.417382282275E-14,0.5886608592558
610,GRAV,11967795.16583,0.8133627682218,1.358661500576E-14,0.5817568282974
611,GRAV,9282332.01013,0.8273276176724,1.19072980399E-14,0.5617196925838
612,GRAV,6590384.481705,0.8261965605025,1.205095597553E-14,0.5633819693724
613,GRAV,11967795.16583,0.8133627682218,1.358661500576E-14,0.5817568282974
614,GRAV,9277297.065961,0.8083801041467,1.417382282275E-14,0.5886608592558
615,GRAV,2445517.772037,0.7426115561439,2.128039109071E-14,0.6697223877708
616,GRAV,2307273.930537,0.6216329075102,3.202775098559E-14,0.7833087056202
617,GRAV,2447172.465093,0.9215005432985,-1.839752787339E-15,0.3883770702559
618,GRAV,2305272.195885,0.9583163132205,-9.4504580546E-15,0.2857093694918
619,GRAV,5568635.171107,0.8739569194666,5.736970341937E-15,0.4860033980503
620,GRAV,2322188.713524,0.8721601708423,6.022168515444E-15,0.489220437427
621,GRAV,2470343.031025,0.5376282095994,3.827359023283E-14,0.8431820137093
622,GRAV,2010923.685185,0.9615177893441,-1.023547539368E-14,0.2747426810215
623,GRAV,2712357.966208,0.96147121479,-1.02380920426E-14,0.2749056258614
624,GRAV,4425673.797791,0.9435901947114,-6.15149472138E-15,0.3311156058608
625,GRAV,3107943.615659,0.9477432940173,-7.031551852783E-15,0.3190339302414
626,GRAV,5329461.522608,0.6929281210757,2.596402960883E-14,0.7210066705812
627,GRAV,4348804.110102,0.9704130236593,-1.264610493583E-14,0.241450954673
628,GRAV,2713711.184684,0.5909866773332,3.439783096206E-14,0.8066813170111
629,GRAV,2030294.213097,0.861786158093,7.480556242982E-15,0.5072717395235
630,GRAV,3553870.366351,0.8641026296902,7.137638270375E-15,0.5033156518156
631,GRAV,4059769.875993,0.8740231959329,5.734901197447E-15,0.4858841970791
632,GRAV,3279508.812795,0.8797879158215,4.903820071255E-15,0.475366409388
633,GRAV,4296353.312238,0.8938093702954,2.773141837019E-15,0.448447109002
634,GRAV,4393335.548907,0.825754874901,1.211348428244E-14,0.5640291540136
635,GRAV,4029249.420851,0.9069888609655,6.527958056884E-16,0.4211546106651
636,GRAV,4676984.33758,0.8153661584365,1.336389361233E-14,0.5789456172013
637,GRAV,3518964.908924,0.9028393611091,1.33963800596E-15,0.4299780087773
638,GRAV,4612842.679179,0.8497159617189,9.072630918382E-15,0.5272407271826
639,GRAV,5762668.098301,0.8558823172378,8.247114603291E-15,0.5171706285547
640,GRAV,4762899.073876,0.9732565882068,-1.347879017641E-14,0.2297207293915
641,GRAV,3257722.776868,0.9796504923619,-1.550326347041E-14,0.2007110181708
642,GRAV,2882764.282708,0.9899356420659,-1.957185285084E-14,0.1415182835095
643,GRAV,5418173.304368,0.6361990588258,3.082698821607E-14,0.7715249558823
644,GRAV,5534163.369682,0.8222332925636,1.253678286804E-14,0.5691506062546
645,GRAV,4833187.246977,0.9499754350064,-7.536888448699E-15,0.3123246274062
646,GRAV,1856804.086312,0.9175920377735,-1.128797481903E-15,0.3975233983236
647,GRAV,5696727.540633,0.8878155716422,3.689747231986E-15,0.4601994249774
648,GRAV,4478247.803311,0.9275872418038,-2.978630824713E-15,0.3736066231249
649,GRAV,2647835.490669,0.9384667651242,-5.077179696677E-15,0.3453695567899
650,GRAV,5296914.983134,0.720397112765,2.341900205118E-14,0.6935618212674
651,GRAV,4222665.331246,0.9397687741931,-5.357556227584E-15,0.3418108410387
652,GRAV,3051796.28529,0.9248927368854,-2.466689145723E-15,0.3802281226536
653,GRAV,3307778.188444,0.9415298874664,-5.712539868697E-15,0.3369294748276
654,GRAV,4142029.831289,0.9687141162194,-1.216652054936E-14,0.2481792921203
655,GRAV,2547682.48759,0.7952543396455,1.570886625048E-14,0.6062759563722
656,GRAV,2151962.16377,0.9198255127541,-1.533053938368E-15,0.3923277024206
657,GRAV,5549905.835776,0.7593771753499,1.955339673421E-14,0.6506506785962
658,GRAV,3826092.937212,0.9824274125704,-1.64858606046E-14,0.1866450616281
659,GRAV,5403256.739768,0.8850222361951,4.11281640649E-15,0.465548753022
660,GRAV,4918724.055248,0.6821393333534,2.692946208464E-14,0.7312222164925
661,GRAV,4158457.797811,0.4450932439657,4.426813315297E-14,0.8954842288818
662,GRAV,5535222.321713,0.6976726209644,2.553323795657E-14,0.7164167180885
663,GRAV,2517248.692803,0.968920873843,-1.220666933271E-14,0.2473708556627
664,GRAV,3448889.780314,0.9743045565335,-1.378631549318E-14,0.2252346134989
665,GRAV,5713526.752634,0.8112534423873,1.384523076564E-14,0.5846946657999
666,GRAV,5428364.729189,0.803092166485,1.479418179796E-14,0.5958548247103
667,GRAV,4881374.170021,0.9360790887283,-4.617906820699E-15,0.3517896241301
668,GRAV,4325011.056058,0.9808513697191,-1.592617782635E-14,0.194757773966
669,GRAV,4565316.136705,0.7481443874463,2.070454756935E-14,0.6635359640084
670,GRAV,3118189.69713,0.797684989406,1.542632418801E-14,0.603074338433
671,GRAV,4274263.232345,0.7556575164434,1.994231063771E-14,0.6549669593518
672,GRAV,3405572.421035,0.7848811567845,1.685071349179E-14,0.6196463263222
673,GRAV,2151962.16377,0.9198255127541,-1.533053938368E-15,0.3923277024206
674,GRAV,4023468.239705,0.9913359812838,-2.02718734398E-14,0.1313505698966
675,GRAV,5777787.863726,0.7373691665239,2.177359214971E-14,0.6754899793926
676,GRAV,5829125.07208,0.7702893344917,1.841037737637E-14,0.637694551622
677,GRAV,5014707.186555,0.620047797391,3.212755097982E-14,0.7845640375078
678,GRAV,4883440.851415,0.7122444512037,2.41904760655E-14,0.701931507862
679,GRAV,5935129.936397,0.8452907781998,9.645934746978E-15,0.5343065602165
680,GRAV,5884717.703578,0.8705705458965,6.219121447048E-15,0.4920436206451
681,GRAV,4741184.560309,0.9823662664819,-1.646921319197E-14,0.186966623969
682,GRAV,5620687.501187,0.643315619599,3.024253109272E-14,0.7656010799235
683,GRAV,2699997.250781,0.9944127923636,-2.199220396924E-14,0.1055613489099
684,GRAV,3349678.926781,0.9894614666032,-1.935444257721E-14,0.144796429885
685,GRAV,5473955.791652,0.607255224943,3.312993480877E-14,0.7945068229911
686,GRAV,5037571.170662,0.952661981984,-8.144507304299E-15,0.3040314919252
687,GRAV,3736909.867786,0.9935930786473,-2.150443106583E-14,0.113016786648
688,GRAV,5379148.292502,0.9393098022012,-5.269643053017E-15,0.3430701028782
689,GRAV,4104625.277631,0.5069041828189,4.034481790231E-14,0.8620024068648
690,GRAV,3870623.241533,0.430231738248,4.516147209423E-14,0.9027184784882
691,GRAV,5074926.425052,0.5884636336079,3.4569189779E-14,0.808523686679
692,GRAV,4970174.234679,0.9744560356122,-1.38424642805E-14,0.2245783485979
693,GRAV,2986288.855965,0.9967889095484,-2.36905656734E-14,0.0800741518923
694,GRAV,4383397.706234,0.7126270640103,2.41572392524E-14,0.7015430618573
695,GRAV,3212315.659833,0.741266446601,2.140334712698E-14,0.6712108872356
696,GRAV,3797050.080548,0.7248929478847,2.299747047997E-14,0.6888615347855
697,GRAV,3777111.500253,0.5625371311364,3.649069805274E-14,0.8267720218373
698,GRAV,3521412.627549,0.4854241440305,4.175373207997E-14,0.8742787887123
699,GRAV,3482817.320406,0.5567702187991,3.690842885135E-14,0.8306665537136
700,GRAV,4672003.804625,0.4949009309581,4.113185118037E-14,0.86894940505
701,GRAV,4904224.797702,0.527671588173,3.8938885306E-14,0.8494484652026
702,GRAV,5403256.739768,0.8850222361951,4.11281640649E-15,0.465548753022
703,GRAV,4813886.206325,0.610840953431,3.28533750271E-14,0.7917533262396
704,GRAV,4713815.712588,0.6759737835917,2.747259310415E-14,0.7369256705373
705,GRAV,4633577.78117,0.5485888882004,3.74832082868E-14,0.836092238777
706,GRAV,2832185.124015,0.7010698191478,2.524219116535E-14,0.7130926368153
707,GRAV,3919494.685012,0.6751644632349,2.754810449226E-14,0.737667233639
708,GRAV,3624725.878971,0.6788560298088,2.722703245433E-14,0.7342714013171
709,GRAV,2729971.623549,0.4403746670886,4.456728810473E-14,0.8978140968968
710,GRAV,2058244.754118,0.5629244744252,3.648735800049E-14,0.8265083400021
711,GRAV,3013416.644544,0.4141814081832,4.611082172918E-14,0.9101943534847
712,GRAV,2953490.033391,0.5003746021099,4.078710684957E-14,0.8658090191049
713,GRAV,5371266.000516,0.9172898411468,-1.114949996294E-15,0.3982202246607
714,GRAV,5666393.890709,0.9181586900116,-1.26920426632E-15,0.3962128467835
715,GRAV,5076166.797122,0.9163147837451,-9.427536377871E-16,0.4004587582887
716,GRAV,5371266.000516,0.9172898411468,-1.114949996294E-15,0.3982202246607
717,GRAV,5327797.099424,0.8418028689288,1.009841668371E-14,0.5397850774736
718,GRAV,5154697.630278,0.8536310607845,8.551000742205E-15,0.5208781163227
719,GRAV,5215760.078809,0.8232853199302,1.241044915515E-14,0.5676277671039
720,GRAV,5038813.245861,0.8353780191023,1.091634691062E-14,0.5496758728566
721,GRAV,5154697.630278,0.8536310607845,8.551000742205E-15,0.5208781163227
722,GRAV,4984339.4223,0.8658048265418,6.892253616346E-15,0.5003818565225
723,GRAV,2307273.930537,0.6216329075102,3.202775098559E-14,0.7833087056202
724,GRAV,2445517.772037,0.7426115561439,2.128039109071E-14,0.6697223877708
725,GRAV,1905723.470948,0.6636784752497,2.857067776359E-14,0.7480179686948
726,GRAV,2070948.123574,0.795085103828,1.573800450596E-14,0.6064978793622

***********************************************************
** MbDAssembly gravity
*DLOAD
Eall,GRAV,9810,0.9396483516509,0,-0.3421417472915

***********************************************************
** Outputs --> frd file
*NODE FILE
U
*EL FILE
S, E
*OUTPUT, FREQUENCY=1
***********************************************************
*END STEP

***********************************************************
** CalculiX Input file
**   written by    --> FreeCAD 26.3.0
**   written on    --> Sat Sep  5 14:27:43 2026
**   file name     --> RealisticPendulum.FCStd
**   analysis name --> FEMPart002
**
**
***********************************************************
**  About units:
**  See ccx manual, ccx does not know about any unit.
**  Golden rule: The user must make sure that the numbers they provide have consistent units.
**  The user is the FreeCAD calculix writer module ;-)
**
**  The unit system which is used at Guido Dhondt's company: mm, N, s, K
**  Since Length and Mass are connected by Force, if Length is mm the Mass is in t to get N
**  The following units are used to write to inp file:
**
**  Length: mm (this includes the mesh geometry)
**  Mass: t
**  TimeSpan: s
**  Temperature: K
**
**  This leads to:
**  Force: N
**  Pressure: N/mm^2 == MPa (Young's Modulus has unit Pressure)
**  Density: t/mm^3
**  Gravity: mm/s^2
**  Thermal conductivity: t*mm/K/s^3 == as W/m/K == kW/mm/K
**  Specific Heat: mm^2/s^2/K = J/kg/K == kJ/t/K
**
