** written by FreeCAD inp file writer for CalculiX,Abaqus meshes
** highest dimension mesh elements only.

** Nodes
*Node, NSET=Nall
1, -5e-15, 5, 212
2, -5e-15, -5, 212
3, -5, -3, 172.635083269
4, -5, 3, 172.635083269
5, 5, 3, 172.635083269
6, 5, -3, 172.635083269
7, -2e-15, -5, 200
8, -2e-15, 5, 200
9, -5, -3, 75.54995462791
10, -5, 3, 75.54995462791
11, 5, 3, 75.54995462791
12, -6.86e-15, 3, 76
13, 5, -3, 75.54995462791
14, -6.86e-15, -3, 76
15, -7e-15, 5, 76
16, -7e-15, -5, 76
17, -4.9e-15, 0, 212
18, 10, -5, 209.3205080757
19, 17.32050807569, -5, 202
20, 20, -5, 192
21, 17.32050807569, -5, 182
22, 10, -5, 174.6794919243
23, -1.130139009627e-13, -5, 172
24, -10, -5, 174.6794919243
25, -17.32050807569, -5, 182
26, -20, -5, 192
27, -17.32050807569, -5, 202
28, -10, -5, 209.3205080757
29, 5.17638090205, -5, 211.3185165258
30, 14.14213562373, -5, 206.1421356237
31, 19.31851652578, -5, 197.1763809021
32, 19.31851652578, -5, 186.8236190979
33, 14.14213562373, -5, 177.8578643763
34, 5.17638090205, -5, 172.6814834742
35, -5.176380902051, -5, 172.6814834742
36, -14.14213562373, -5, 177.8578643763
37, -19.31851652578, -5, 186.8236190979
38, -19.31851652578, -5, 197.1763809021
39, -14.14213562373, -5, 206.1421356237
40, -5.17638090205, -5, 211.3185165258
41, 10, 5, 209.3205080757
42, 17.32050807569, 5, 202
43, 20, 5, 192
44, 17.32050807569, 5, 182
45, 10, 5, 174.6794919243
46, -1.130139009627e-13, 5, 172
47, -10, 5, 174.6794919243
48, -17.32050807569, 5, 182
49, -20, 5, 192
50, -17.32050807569, 5, 202
51, -10, 5, 209.3205080757
52, 5.17638090205, 5, 211.3185165258
53, 14.14213562373, 5, 206.1421356237
54, 19.31851652578, 5, 197.1763809021
55, 19.31851652578, 5, 186.8236190979
56, 14.14213562373, 5, 177.8578643763
57, 5.17638090205, 5, 172.6814834742
58, -5.176380902051, 5, 172.6814834742
59, -14.14213562373, 5, 177.8578643763
60, -19.31851652578, 5, 186.8236190979
61, -19.31851652578, 5, 197.1763809021
62, -14.14213562373, 5, 206.1421356237
63, -5.17638090205, 5, 211.3185165258
64, -5, 0, 172.635083269
65, 6.46217829773e-14, 3, 172
66, 5, 0, 172.635083269
67, 6.46217829773e-14, -3, 172
68, 4, -5, 198.9282032303
69, 6.928203230276, -5, 196
70, 8, -5, 192
71, 6.928203230275, -5, 188
72, 4, -5, 185.0717967697
73, -4.520556038509e-14, -5, 184
74, -4, -5, 185.0717967697
75, -6.928203230276, -5, 188
76, -8, -5, 192
77, -6.928203230275, -5, 196
78, -4, -5, 198.9282032303
79, 2.07055236082, -5, 199.7274066103
80, 5.656854249492, -5, 197.6568542495
81, 7.727406610313, -5, 194.0705523608
82, 7.727406610313, -5, 189.9294476392
83, 5.656854249492, -5, 186.3431457505
84, 2.07055236082, -5, 184.2725933897
85, -2.07055236082, -5, 184.2725933897
86, -5.656854249492, -5, 186.3431457505
87, -7.727406610313, -5, 189.9294476392
88, -7.727406610313, -5, 194.0705523608
89, -5.656854249492, -5, 197.6568542495
90, -2.07055236082, -5, 199.7274066103
91, 4, 5, 198.9282032303
92, 6.928203230276, 5, 196
93, 8, 5, 192
94, 6.928203230275, 5, 188
95, 4, 5, 185.0717967697
96, -4.520556038509e-14, 5, 184
97, -4, 5, 185.0717967697
98, -6.928203230276, 5, 188
99, -8, 5, 192
100, -6.928203230275, 5, 196
101, -4, 5, 198.9282032303
102, 2.07055236082, 5, 199.7274066103
103, 5.656854249492, 5, 197.6568542495
104, 7.727406610313, 5, 194.0705523608
105, 7.727406610313, 5, 189.9294476392
106, 5.656854249492, 5, 186.3431457505
107, 2.07055236082, 5, 184.2725933897
108, -2.07055236082, 5, 184.2725933897
109, -5.656854249492, 5, 186.3431457505
110, -7.727406610313, 5, 189.9294476392
111, -7.727406610313, 5, 194.0705523608
112, -5.656854249492, 5, 197.6568542495
113, -2.07055236082, 5, 199.7274066103
114, -5, -3, 142.5149020532
115, -5, -3, 109.0324283406
116, -5, -3, 157.5749926611
117, -5, 3, 142.5149020532
118, -5, 3, 109.0324283406
119, -5, 3, 157.5749926611
120, -5, 0, 75.54995462791
121, 5, 3, 142.5149020532
122, 5, 3, 109.0324283406
123, 5, 3, 157.5749926611
124, -2.510106613121, 3, 75.88726169402
125, 2.510106613121, 3, 75.88726169402
126, 5, -3, 142.5149020532
127, 5, -3, 109.0324283406
128, 5, -3, 157.5749926611
129, 5, 0, 75.54995462791
130, -2.510106613121, -3, 75.88726169402
131, 2.510106613121, -3, 75.88726169402
132, -1.96e-15, -1.666666666667, 200
133, -1.96e-15, 1.666666666667, 200
134, -1.96e-15, -3.333333333333, 200
135, -1.96e-15, 8.881784197001e-16, 200
136, -1.96e-15, 3.333333333333, 200
137, -6.86e-15, 4, 76
138, -6.86e-15, -4, 76
139, 14, -5, 72.24871130596
140, 24.24871130596, -5, 62
141, 28, -5, 48
142, 24.24871130596, -5, 34
143, 14, -5, 23.75128869404
144, -1.706539592236e-13, -5, 20
145, -14, -5, 23.75128869404
146, -24.24871130596, -5, 34
147, -28, -5, 48
148, -24.24871130596, -5, 62
149, -14, -5, 72.24871130596
150, 7.246933262871, -5, 75.04592313609
151, 19.79898987322, -5, 67.79898987322
152, 27.04592313609, -5, 55.24693326287
153, 27.04592313609, -5, 40.75306673713
154, 19.79898987322, -5, 28.20101012678
155, 7.24693326287, -5, 20.95407686391
156, -7.246933262871, -5, 20.95407686391
157, -19.79898987322, -5, 28.20101012678
158, -27.04592313609, -5, 40.75306673713
159, -27.04592313609, -5, 55.24693326287
160, -19.79898987322, -5, 67.79898987322
161, -7.24693326287, -5, 75.04592313609
162, 14, 5, 72.24871130596
163, 24.24871130596, 5, 62
164, 28, 5, 48
165, 24.24871130596, 5, 34
166, 14, 5, 23.75128869404
167, -1.706539592236e-13, 5, 20
168, -14, 5, 23.75128869404
169, -24.24871130596, 5, 34
170, -28, 5, 48
171, -24.24871130596, 5, 62
172, -14, 5, 72.24871130596
173, 7.246933262871, 5, 75.04592313609
174, 19.79898987322, 5, 67.79898987322
175, 27.04592313609, 5, 55.24693326287
176, 27.04592313609, 5, 40.75306673713
177, 19.79898987322, 5, 28.20101012678
178, 7.24693326287, 5, 20.95407686391
179, -7.246933262871, 5, 20.95407686391
180, -19.79898987322, 5, 28.20101012678
181, -27.04592313609, 5, 40.75306673713
182, -27.04592313609, 5, 55.24693326287
183, -19.79898987322, 5, 67.79898987322
184, -7.24693326287, 5, 75.04592313609
185, -9.999999998477, 2.6645352591e-15, 209.3205080766
186, 9.999999999999, 0, 209.3205080757
187, -5.176380901201, 2.5, 211.318516526
188, -5.176380901201, -2.5, 211.318516526
189, 5.17638090205, 2.5, 211.3185165258
190, 5.17638090205, -2.5, 211.3185165258
191, 10, 2.5, 209.3205080757
192, -9.999999999238, 2.5, 209.3205080761
193, 10, -2.5, 209.3205080757
194, -9.999999999238, -2.5, 209.3205080761
195, -7.569339580671, -4, 173.4877041318
196, -7.569339580671, -1, 173.4877041318
197, 2.520085849655, -4, 172.1594060747
198, -2.520085849655, -4, 172.1594060747
199, -2.520085849655, 4, 172.1594060747
200, 2.520085849655, 4, 172.1594060747
201, -10, 0, 174.6794919243
202, -7.569339580671, 4, 173.4877041318
203, 7.569339580671, -1, 173.4877041318
204, 7.569339580671, -4, 173.4877041318
205, 7.569339580671, 4, 173.4877041318
206, 10, 0, 174.6794919243
207, 14.14213562373, -2.5, 206.1421356237
208, 20, 0, 192
209, 19.31851652578, 0, 197.1763809021
210, 17.32050807569, 0, 202
211, 14.14213562373, 2.5, 206.1421356237
212, 17.32050807569, 0, 182
213, 19.31851652578, 0, 186.8236190979
214, 14.14213562373, 0, 177.8578643763
215, -14.14213562373, 0, 177.8578643763
216, -19.31851652578, 0, 186.8236190979
217, -17.32050807569, 0, 182
218, -19.31851652578, 0, 197.1763809021
219, -20, 0, 192
220, -14.14213562311, -2.5, 206.1421356244
221, -17.32050807569, 0, 202
222, -14.14213562311, 2.5, 206.1421356244
223, 3.416237101988, -5, 204.7495704353
224, 9.333333333333, -5, 182.6666666667
225, -3.472079033996, -5, 204.5411655079
226, -9.286798389993, -5, 201.0901942513
227, -12.74957043532, -5, 188.583762898
228, -12.38084668855, -5, 195.2789928582
229, -9.124928405887, -5, 182.7225085987
230, 3.26367410655, -5, 179.4029925601
231, 12.59700743988, -5, 188.7363258935
232, -3.31020904989, -5, 179.6461316421
233, 9.277491401325, -5, 201.1249284059
234, 12.35386835786, -5, 195.3102090499
235, 1.708118550994, -5, 208.3747852177
236, 6.708118550994, -5, 207.0350392555
237, -6.736039516998, -5, 206.9308367918
238, -1.736039516998, -5, 208.2705827539
239, -0.02792096600395, -5, 204.6453679716
240, 3.708118550994, -5, 201.8388868328
241, 1.708118550994, -5, 202.3747852177
242, -1.736039516998, -5, 202.2705827539
243, -3.736039516998, -5, 201.7346843691
244, 9.638745700663, -5, 205.2227182408
245, 13.29899973851, -5, 201.5624642029
246, 6.346864251657, -5, 202.9372494206
247, 14.83718821678, -5, 198.6551045249
248, 16.17693417893, -5, 193.6551045249
249, 10.81567987959, -5, 198.2175687279
250, 16.29850371994, -5, 190.3681629467
251, 14.95875775779, -5, 185.3681629467
252, 12.47543789887, -5, 192.0232674717
253, 13.32692070451, -5, 182.3333333333
254, 9.666666666667, -5, 178.6730792955
255, 10.96517038661, -5, 185.7014962801
256, 6.631837053275, -5, 177.0412422422
257, 1.631837053275, -5, 175.7014962801
258, 6.298503719941, -5, 181.0348296134
259, -1.655104524945, -5, 175.8230658211
260, -6.655104524945, -5, 177.1628117832
261, -0.02326747167005, -5, 179.5245621011
262, -9.562464202944, -5, 178.7010002615
263, -13.22271824079, -5, 182.3612542993
264, -6.217568727888, -5, 181.1843201204
265, -15.03503925551, -5, 185.291881449
266, -16.37478521766, -5, 190.291881449
267, -10.9372494206, -5, 185.6531357483
268, -16.19042334427, -5, 193.6394964291
269, -14.85067738212, -5, 198.6394964291
270, -12.56520856193, -5, 191.9313778781
271, -13.30365323284, -5, 201.5450971257
272, -9.643399194997, -5, 205.2053511635
273, -10.83382253927, -5, 198.1845935548
274, -6.379438711995, -5, 202.8156798796
275, 8.1028473158, -5, 198.5624642029
276, 6.638745700663, -5, 200.0265658181
277, 10.17693417893, -5, 193.6551045249
278, 9.641035794069, -5, 195.6551045249
279, 9.762605335079, -5, 188.3681629467
280, 10.29850371994, -5, 190.3681629467
281, 6.666666666667, -5, 183.8692317182
282, 8.130768281804, -5, 185.3333333333
283, 1.631837053275, -5, 181.7014962801
284, 3.631837053275, -5, 182.2373946649
285, -3.655104524945, -5, 182.3589642059
286, -1.655104524945, -5, 181.8230658211
287, -8.026565818081, -5, 185.3612542993
288, -6.562464202943, -5, 183.8971526842
289, -10.37478521766, -5, 190.291881449
290, -9.838886832798, -5, 188.291881449
291, -9.654524959411, -5, 195.6394964291
292, -10.19042334427, -5, 193.6394964291
293, -6.643399194997, -5, 200.0091987408
294, -8.107500810134, -5, 198.5450971257
295, 3.416237101988, 5, 204.7495704353
296, 9.333333333333, 5, 182.6666666667
297, -3.472079033996, 5, 204.5411655079
298, -9.286798389993, 5, 201.0901942513
299, -12.74957043532, 5, 188.583762898
300, -12.38084668855, 5, 195.2789928582
301, -9.124928405887, 5, 182.7225085987
302, 3.26367410655, 5, 179.4029925601
303, 12.59700743988, 5, 188.7363258935
304, -3.31020904989, 5, 179.6461316421
305, 9.277491401325, 5, 201.1249284059
306, 12.35386835786, 5, 195.3102090499
307, 6.708118550994, 5, 207.0350392555
308, 1.708118550994, 5, 208.3747852177
309, -1.736039516998, 5, 208.2705827539
310, -6.736039516998, 5, 206.9308367918
311, -0.02792096600395, 5, 204.6453679716
312, 1.708118550994, 5, 202.3747852177
313, 3.708118550994, 5, 201.8388868328
314, -3.736039516998, 5, 201.7346843691
315, -1.736039516998, 5, 202.2705827539
316, 13.29899973851, 5, 201.5624642029
317, 9.638745700663, 5, 205.2227182408
318, 6.346864251657, 5, 202.9372494206
319, 16.17693417893, 5, 193.6551045249
320, 14.83718821678, 5, 198.6551045249
321, 10.81567987959, 5, 198.2175687279
322, 14.95875775779, 5, 185.3681629467
323, 16.29850371994, 5, 190.3681629467
324, 12.47543789887, 5, 192.0232674717
325, 9.666666666667, 5, 178.6730792955
326, 13.32692070451, 5, 182.3333333333
327, 10.96517038661, 5, 185.7014962801
328, 1.631837053275, 5, 175.7014962801
329, 6.631837053275, 5, 177.0412422422
330, 6.298503719941, 5, 181.0348296134
331, -6.655104524945, 5, 177.1628117832
332, -1.655104524945, 5, 175.8230658211
333, -0.02326747167005, 5, 179.5245621011
334, -13.22271824079, 5, 182.3612542993
335, -9.562464202944, 5, 178.7010002615
336, -6.217568727888, 5, 181.1843201204
337, -16.37478521766, 5, 190.291881449
338, -15.03503925551, 5, 185.291881449
339, -10.9372494206, 5, 185.6531357483
340, -14.85067738212, 5, 198.6394964291
341, -16.19042334427, 5, 193.6394964291
342, -12.56520856193, 5, 191.9313778781
343, -9.643399194997, 5, 205.2053511635
344, -13.30365323284, 5, 201.5450971257
345, -10.83382253927, 5, 198.1845935548
346, -6.379438711995, 5, 202.8156798796
347, 6.638745700663, 5, 200.0265658181
348, 8.1028473158, 5, 198.5624642029
349, 9.641035794069, 5, 195.6551045249
350, 10.17693417893, 5, 193.6551045249
351, 10.29850371994, 5, 190.3681629467
352, 9.762605335079, 5, 188.3681629467
353, 8.130768281804, 5, 185.3333333333
354, 6.666666666667, 5, 183.8692317182
355, 3.631837053275, 5, 182.2373946649
356, 1.631837053275, 5, 181.7014962801
357, -1.655104524945, 5, 181.8230658211
358, -3.655104524945, 5, 182.3589642059
359, -6.562464202943, 5, 183.8971526842
360, -8.026565818081, 5, 185.3612542993
361, -9.838886832798, 5, 188.291881449
362, -10.37478521766, 5, 190.291881449
363, -10.19042334427, 5, 193.6394964291
364, -9.654524959411, 5, 195.6394964291
365, -8.107500810134, 5, 198.5450971257
366, -6.643399194997, 5, 200.0091987408
367, -5, 0, 157.5749926611
368, -5, 0, 142.5149020532
369, -5, 0, 109.0324283406
370, 1.68753899743e-14, 3, 157.5749926611
371, 0, 3, 142.5149020532
372, -2.5, 3, 109.2574510266
373, 2.5, 3, 109.2574510266
374, 5, 0, 157.5749926611
375, 5, 0, 142.5149020532
376, 5, 0, 109.0324283406
377, 1.68753899743e-14, -3, 157.5749926611
378, 0, -3, 142.5149020532
379, -2.5, -3, 109.2574510266
380, 2.5, -3, 109.2574510266
381, -7.751173309934, 0.0004090689846006, 193.9797253141
382, -5.900629000126, 0.008584387974766, 197.4020900958
383, 5.900629000126, 0.008584387974766, 197.4020900958
384, 7.751173309934, 0.0004090689846006, 193.9797253141
385, -7.727406610313, 0, 189.9294476392
386, -5.656854249492, 0, 186.3431457505
387, -2.07055236082, 3.333333333333, 199.7274066103
388, -3.330387815149, 0.3820363689807, 199.2738240975
389, 3.330387815149, 0.3820363689807, 199.2738240975
390, 2.07055236082, 3.333333333333, 199.7274066103
391, 1.816621978181, -2.083765626184, 199.7910130656
392, -1.816621978181, -2.083765626184, 199.7910130656
393, -2.07055236082, 0, 184.2725933897
394, 2.07055236082, 0, 184.2725933897
395, 5.656854249492, -8.881784197001e-16, 186.3431457505
396, 7.727406610313, 0, 189.9294476392
397, 0.914301775996, -3.541882813092, 199.9475815354
398, 2.940133162333, -3.541882813092, 199.440135549
399, -0.914301775996, -3.541882813092, 199.9475815354
400, -2.940133162333, -3.541882813092, 199.440135549
401, 0.914301775996, -1.875216146425, 199.9475815354
402, -0.914301775996, -1.875216146425, 199.9475815354
403, 1.04420953776, 4.166666666667, 199.931558891
404, 3.061467458921, 4.166666666667, 199.3910362601
405, -1.04420953776, 4.166666666667, 199.931558891
406, -3.061467458921, 4.166666666667, 199.3910362601
407, -1.04420953776, 2.5, 199.931558891
408, 1.04420953776, 2.5, 199.931558891
409, 6.452611739297, -2.495707806013, 196.7290381413
410, 5.008779190018, -2.495707806013, 198.237958883
411, 4.709433607583, 0.1953103784777, 198.4669339795
412, 3.669265570394, -2.30898181551, 199.1089021778
413, 2.586464490448, -0.8508646286017, 199.570350153
414, 7.937549574002, -2.499795465508, 192.9976506203
415, 7.408873150076, -2.499795465508, 195.018045501
416, 7.037120984672, 0.004496728479683, 195.8051186903
417, 7.39103626009, -2.5, 188.9385325411
418, 7.93155889099, -2.5, 190.9557904622
419, 7.999862273683, 0.0002045344923003, 191.9530574595
420, 4.87009143207, -2.5, 185.6531732777
421, 6.34682672233, -2.5, 187.1299085679
422, 6.928203230275, 0, 188
423, 1.04420953776, -2.5, 184.068441109
424, 3.061467458921, -2.5, 184.6089637399
425, 4, 0, 185.0717967697
426, -1.04420953776, -2.5, 184.068441109
427, -3.061467458921, -2.5, 184.6089637399
428, -4.165284670629e-14, 0, 184
429, -4.87009143207, -2.5, 185.6531732777
430, -6.34682672233, -2.5, 187.1299085679
431, -4, 0, 185.0717967697
432, -7.39103626009, -2.5, 188.9385325411
433, -7.93155889099, -2.5, 190.9557904622
434, -6.928203230276, 0, 188
435, -7.937549574002, -2.499795465508, 192.9976506203
436, -7.408873150076, -2.499795465508, 195.018045501
437, -7.999862273683, 0.0002045344923003, 191.9530574595
438, -6.452611739297, -2.495707806013, 196.7290381413
439, -5.008779190018, -2.495707806013, 198.237958883
440, -7.037120984672, 0.004496728479683, 195.8051186903
441, -4.709433607583, 0.1953103784777, 198.4669339795
442, -3.669265570394, -2.30898181551, 199.1089021778
443, -2.586464490448, -0.8508646286017, 199.570350153
444, 5.008779190018, 2.504292193987, 198.237958883
445, 6.452611739297, 2.504292193987, 196.7290381413
446, 3.669265570394, 2.69101818449, 199.1089021778
447, 2.709976562646, 1.857684851157, 199.5270197974
448, 7.408873150076, 2.500204534492, 195.018045501
449, 7.937549574002, 2.500204534492, 192.9976506203
450, 7.93155889099, 2.5, 190.9557904622
451, 7.39103626009, 2.5, 188.9385325411
452, 6.34682672233, 2.5, 187.1299085679
453, 4.87009143207, 2.5, 185.6531732777
454, 3.061467458921, 2.5, 184.6089637399
455, 1.04420953776, 2.5, 184.068441109
456, -3.061467458921, 2.5, 184.6089637399
457, -1.04420953776, 2.5, 184.068441109
458, -6.34682672233, 2.5, 187.1299085679
459, -4.87009143207, 2.5, 185.6531732777
460, -7.93155889099, 2.5, 190.9557904622
461, -7.39103626009, 2.5, 188.9385325411
462, -7.408873150076, 2.500204534492, 195.018045501
463, -7.937549574002, 2.500204534492, 192.9976506203
464, -5.008779190018, 2.504292193987, 198.237958883
465, -6.452611739297, 2.504292193987, 196.7290381413
466, -3.669265570394, 2.69101818449, 199.1089021778
467, -2.709976562646, 1.857684851157, 199.5270197974
468, 0.914301775996, -0.2085494797587, 199.9475815354
469, -0.914301775996, -0.2085494797587, 199.9475815354
470, -1.704319104564, 1.024351517824, 199.8163480213
471, 1.704319104564, 1.024351517824, 199.8163480213
472, 10.01929225336, -0.002590188100204, 74.14600892568
473, -10.01929227301, 0.002590108333714, 74.14600891815
474, -7.542383640765, 1.501295054167, 74.96502269637
475, -7.542383640765, -1.498704945833, 74.96502269637
476, -2.510106613121, -4, 75.88726169402
477, -9.642331246523, -4, 74.28736289802
478, -12.0470550294, -2.498704945833, 73.27584746588
479, -2.510106613121, 4, 75.88726169402
480, -9.642331246523, 4, 74.28736289802
481, -12.0470550294, 2.501295054167, 73.27584746588
482, 2.510106613121, 4, 75.88726169402
483, 7.542383630636, -1.50129509405, 74.9650226992
484, 7.542383630636, 1.49870490595, 74.9650226992
485, 9.642331246523, 4, 74.28736289802
486, 12.0470550199, 2.49870490595, 73.27584747041
487, 2.510106613121, -4, 75.88726169402
488, 9.642331246523, -4, 74.28736289802
489, 12.0470550199, -2.50129509405, 73.27584747041
490, 24.24871130596, 0, 62
491, 19.79898987322, 0, 67.79898987322
492, 14, 0, 72.24871130596
493, 28, 0, 48
494, 27.04592313609, 0, 55.24693326287
495, 24.24871130596, 0, 34
496, 27.04592313609, 0, 40.75306673713
497, 14, 0, 23.75128869404
498, 19.79898987322, 0, 28.20101012678
499, -1.706539592236e-13, 0, 20
500, 7.24693326287, 0, 20.95407686391
501, -7.246933262871, 0, 20.95407686391
502, -19.79898987322, 0, 28.20101012678
503, -14, 0, 23.75128869404
504, -27.04592313609, 0, 40.75306673713
505, -24.24871130596, 0, 34
506, -27.04592313609, 0, 55.24693326287
507, -28, 0, 48
508, -19.79898987322, 0, 67.79898987322
509, -24.24871130596, 0, 62
510, -14, 0, 72.24871130596
511, -7.174332940777e-15, -5, 48
512, -3.751288694036, -5, 62
513, -14, -5, 51.75128869404
514, 3.751288694036, -5, 34
515, 14, -5, 44.24871130596
516, 10.24871130596, -5, 58.24871130596
517, -10.24871130596, -5, 37.75128869404
518, 5.124355652982, -5, 67.12435565298
519, -14, -5, 62
520, 19.12435565298, -5, 53.12435565298
521, 14, -5, 34
522, 2.562177826491, -5, 71.56217782649
523, 9.562177826491, -5, 69.68653347947
524, -8.875644347018, -5, 67.12435565298
525, -1.875644347018, -5, 69
526, 0.6865334794732, -5, 64.56217782649
527, 12.12435565298, -5, 65.24871130596
528, 17.24871130596, -5, 60.12435565298
529, 7.686533479473, -5, 62.68653347947
530, 21.68653347947, -5, 57.56217782649
531, 23.56217782649, -5, 50.56217782649
532, 14.68653347947, -5, 55.68653347947
533, 21, -5, 46.12435565298
534, 19.12435565298, -5, 39.12435565298
535, 16.56217782649, -5, 48.68653347947
536, 19.12435565298, -5, 34
537, 14, -5, 28.87564434702
538, 14, -5, 39.12435565298
539, 8.875644347018, -5, 28.87564434702
540, 1.875644347018, -5, 27
541, 8.875644347018, -5, 34
542, -5.124355652982, -5, 28.87564434702
543, -12.12435565298, -5, 30.75128869404
544, -3.248711305964, -5, 35.87564434702
545, -17.24871130596, -5, 35.87564434702
546, -19.12435565298, -5, 42.87564434702
547, -21, -5, 49.87564434702
548, -12.12435565298, -5, 44.75128869404
549, -19.12435565298, -5, 56.87564434702
550, -19.12435565298, -5, 62
551, -14, -5, 67.12435565298
552, -14, -5, 56.87564434702
553, -8.875644347018, -5, 62
554, -1.875644347018, -5, 55
555, -8.875644347018, -5, 56.87564434702
556, -7, -5, 49.87564434702
557, 5.124355652982, -5, 53.12435565298
558, 3.248711305964, -5, 60.12435565298
559, -5.124355652982, -5, 42.87564434702
560, 1.875644347018, -5, 41
561, 8.875644347018, -5, 39.12435565298
562, 7, -5, 46.12435565298
563, 12.12435565298, -5, 51.24871130596
564, -7.174332940777e-15, 5, 48
565, -3.751288694036, 5, 62
566, -14, 5, 51.75128869404
567, 3.751288694036, 5, 34
568, 14, 5, 44.24871130596
569, 10.24871130596, 5, 58.24871130596
570, -10.24871130596, 5, 37.75128869404
571, 5.124355652982, 5, 67.12435565298
572, -14, 5, 62
573, 19.12435565298, 5, 53.12435565298
574, 14, 5, 34
575, 9.562177826491, 5, 69.68653347947
576, 2.562177826491, 5, 71.56217782649
577, -1.875644347018, 5, 69
578, -8.875644347018, 5, 67.12435565298
579, 0.6865334794732, 5, 64.56217782649
580, 17.24871130596, 5, 60.12435565298
581, 12.12435565298, 5, 65.24871130596
582, 7.686533479473, 5, 62.68653347947
583, 23.56217782649, 5, 50.56217782649
584, 21.68653347947, 5, 57.56217782649
585, 14.68653347947, 5, 55.68653347947
586, 19.12435565298, 5, 39.12435565298
587, 21, 5, 46.12435565298
588, 16.56217782649, 5, 48.68653347947
589, 14, 5, 28.87564434702
590, 19.12435565298, 5, 34
591, 14, 5, 39.12435565298
592, 1.875644347018, 5, 27
593, 8.875644347018, 5, 28.87564434702
594, 8.875644347018, 5, 34
595, -12.12435565298, 5, 30.75128869404
596, -5.124355652982, 5, 28.87564434702
597, -3.248711305964, 5, 35.87564434702
598, -17.24871130596, 5, 35.87564434702
599, -21, 5, 49.87564434702
600, -19.12435565298, 5, 42.87564434702
601, -12.12435565298, 5, 44.75128869404
602, -19.12435565298, 5, 56.87564434702
603, -14, 5, 67.12435565298
604, -19.12435565298, 5, 62
605, -14, 5, 56.87564434702
606, -8.875644347018, 5, 62
607, -7, 5, 49.87564434702
608, -8.875644347018, 5, 56.87564434702
609, -1.875644347018, 5, 55
610, 3.248711305964, 5, 60.12435565298
611, 5.124355652982, 5, 53.12435565298
612, -5.124355652982, 5, 42.87564434702
613, 7, 5, 46.12435565298
614, 8.875644347018, 5, 39.12435565298
615, 1.875644347018, 5, 41
616, 12.12435565298, 5, 51.24871130596
617, 1.879065298762, 8.881784197001e-16, 204.5912207106
618, 7.495093791413, -2.5, 184.5049062086
619, 5.701942847077, -2.5, 183.4696300282
620, 7.495093791413, 2.5, 184.5049062086
621, 5.701942847077, 2.5, 183.4696300282
622, 9.333333333333, 0, 182.6666666667
623, -10.23848852282, 2.5, 189.2566052686
624, -10.25037187263, 2.500204534492, 191.2817441061
625, -12.74957043532, 0, 188.583762898
626, -10.25037187263, -2.499795465508, 191.2817441061
627, -10.23848852282, -2.5, 189.2566052686
628, 2.667113233685, -2.5, 181.8377929749
629, 0.5965608728647, -2.5, 181.8377929749
630, 0.5965608728647, 2.5, 181.8377929749
631, 3.26367410655, 0, 179.4029925601
632, 2.667113233685, 2.5, 181.8377929749
633, -9.124928405887, 0, 182.7225085987
634, -7.39089132769, 2.5, 184.5328271746
635, -7.39089132769, -2.5, 184.5328271746
636, -5.597740383354, -2.5, 183.4975509942
637, -5.597740383354, 2.5, 183.4975509942
638, 10.17409037491, -2.499795465508, 191.3580256038
639, 10.1622070251, -2.5, 189.3328867663
640, 10.17409037491, 2.500204534492, 191.3580256038
641, 10.1622070251, 2.5, 189.3328867663
642, 12.59700743988, 0, 188.7363258935
643, -9.140737844336, 2.504292193987, 196.340541477
644, -10.06600999924, 2.500204534492, 194.6293590862
645, -10.06600999924, -2.499795465508, 194.6293590862
646, -12.38084668855, 0, 195.2789928582
647, -9.140737844336, -2.495707806013, 196.340541477
648, 9.127248678994, -2.495707806013, 196.3561495728
649, 10.0525208339, -2.499795465508, 194.644967182
650, 9.127248678994, 2.504292193987, 196.3561495728
651, 10.0525208339, 2.500204534492, 194.644967182
652, 12.35386835786, 0, 195.3102090499
653, 6.298503719941, 0, 181.0348296134
654, -9.203212342407, 2.5, 187.4634543243
655, -10.9372494206, 0, 185.6531357483
656, -12.56520856193, 0, 191.9313778781
657, 12.47543789887, 0, 192.0232674717
658, 7.589060200726, -2.495707806013, 199.2635092508
659, 10.81567987959, 0, 198.2175687279
660, 9.277491401325, 0, 201.1249284059
661, 7.589060200726, 2.504292193987, 199.2635092508
662, -6.217568727888, 0, 181.1843201204
663, -2.690380705355, 2.5, 181.9593625159
664, -0.02326747167005, 0, 179.5245621011
665, -7.59371369506, 2.504292193987, 199.2461421735
666, -9.286798389993, 0, 201.0901942513
667, -7.59371369506, -2.495707806013, 199.2461421735
668, -10.83382253927, 0, 198.1845935548
669, -3.31020904989, 0, 179.6461316421
670, -2.690380705355, -2.5, 181.9593625159
671, 6.303939608237, -2.30898181551, 200.1993762517
672, 6.303939608237, 2.69101818449, 200.1993762517
673, -6.308593102571, 2.69101818449, 200.1820091744
674, -6.308593102571, -2.30898181551, 200.1820091744
675, 0.03122166029049, -1.041882813092, 202.1911168881
676, 0.9395326493808, 0.8333333333333, 202.2956103553
677, 0.9395326493808, -0.8333333333333, 202.2956103553
678, -8.875644347018, 0, 62
679, -14, 0, 62
680, -12.0096461365, -2.498704945833, 68.07300445908
681, -12.0096461365, 2.501295054167, 68.07300445908
682, -6.885290483521, 2.501295054167, 68.07300445908
683, -2.771315697408, 4.166666666667, 202.1342860591
684, -1.736039516998, 3.333333333333, 202.2705827539
685, -3.401233424572, 2.69101818449, 201.9074948027
686, -0.7256612581935, 0.1910181844904, 201.932522404
687, 6.631837053275, 0, 177.0412422422
688, 9.666666666667, 0, 178.6730792955
689, 2.604726556955, 0.1910181844904, 201.932522404
690, 5.578278350044, 2.5, 202.8580745582
691, 5.578278350044, -2.5, 202.8580745582
692, 9.126930844688, 2.5, 187.539735822
693, 9.126930844688, -2.5, 187.539735822
694, -8.4261675081, -2.5, 186.3259781189
695, 2.616429540084, -3.541882813092, 202.2702917505
696, 3.373312458568, -2.30898181551, 202.0116972664
697, -6.655104524945, 0, 177.1628117832
698, -2.644350506088, -3.541882813092, 202.1660892867
699, -3.401233424572, -2.30898181551, 201.9074948027
700, -0.7965068676172, -2.5, 204.5661931092
701, 7.571823953172, 2.49870490595, 70.63518228933
702, 7.571823953172, -2.50129509405, 70.63518228933
703, 5.124355652982, 0, 67.12435565298
704, 9.562177826491, 0, 69.68653347947
705, -1.736039516998, 0, 208.2705827539
706, -3.472079033996, 0, 204.5411655079
707, -0.7965068676172, 2.5, 204.5661931092
708, 0.9395326493808, 2.5, 208.2956103553
709, 13.29899973851, 0, 201.5624642029
710, 14.83718821678, 0, 198.6551045249
711, 3.373312458568, 2.69101818449, 202.0116972664
712, 2.743394731404, 4.166666666667, 202.2384885228
713, -6.665193906813, 0.1910181844904, 204.297166087
714, -9.643399194235, 2.5, 205.2053511639
715, -9.643399194235, -2.5, 205.2053511639
716, -6.736039516237, -2.5, 206.9308367922
717, -6.736039516237, 2.5, 206.9308367922
718, -3.751288694036, 0, 62
719, -6.885290483521, -2.498704945833, 68.07300445908
720, 14.68653347947, 0, 55.68653347947
721, 16.56217782649, 0, 48.68653347947
722, 19.12435565298, 0, 53.12435565298
723, 8.875644347018, 0, 34
724, 8.875644347018, 0, 39.12435565298
725, 14, 0, 34
726, 14, 0, 39.12435565298
727, 3.248711305964, 0, 60.12435565298
728, 0.6865334794732, 0, 64.56217782649
729, 7.686533479473, 0, 62.68653347947
730, 13.32692070451, 0, 182.3333333333
731, -14, 0, 67.12435565298
732, 10.96517038661, 0, 185.7014962801
733, -15.03503925551, 0, 185.291881449
734, -13.22271824079, 0, 182.3612542993
735, -16.37478521766, 0, 190.291881449
736, 14.95875775779, 0, 185.3681629467
737, -16.19042334427, 0, 193.6394964291
738, 16.17693417893, 0, 193.6551045249
739, 16.29850371994, 0, 190.3681629467
740, -9.562464202944, 0, 178.7010002615
741, -13.30365323284, 0, 201.5450971257
742, -14.85067738212, 0, 198.6394964291
743, 0.9395326493808, -2.5, 208.2956103553
744, 9.638745700662, 2.5, 205.2227182408
745, 9.638745700662, -2.5, 205.2227182408
746, 2.647651200375, 2.5, 204.6703955729
747, 1.875644347018, 0, 41
748, 7, 0, 46.12435565298
749, -7.174332940777e-15, 0, 48
750, -1.875644347018, 0, 55
751, 5.124355652982, 0, 53.12435565298
752, 3.751288694036, 0, 34
753, 10.24871130596, 0, 58.24871130596
754, 12.12435565298, 0, 51.24871130596
755, 14, 0, 44.24871130596
756, 19.12435565298, 0, 34
757, 14, 0, 28.87564434702
758, 8.875644347018, 0, 28.87564434702
759, -19.12435565298, 0, 62
760, 12.12435565298, 0, 65.24871130596
761, 21, 0, 46.12435565298
762, 23.56217782649, 0, 50.56217782649
763, 21.68653347947, 0, 57.56217782649
764, 2.647651200375, -2.5, 204.6703955729
765, 1.847843638471, -1.041882813092, 202.1911168881
766, 5.93953264938, 4.440892098501e-16, 206.9558643931
767, -3.248711305964, 0, 35.87564434702
768, 1.875644347018, 0, 27
769, -14, 0, 56.87564434702
770, 6.708118550994, 2.5, 207.0350392555
771, 6.708118550994, -2.5, 207.0350392555
772, 19.12435565298, 0, 39.12435565298
773, 17.24871130596, 0, 60.12435565298
774, 1.974808829791, 1.666666666667, 202.1593136604
775, -8.875644347018, 0, 56.87564434702
776, -7, 0, 49.87564434702
777, -5.124355652982, 0, 42.87564434702
778, 0.9395326493808, 2.5, 202.2956103553
779, -5.124355652982, 0, 28.87564434702
780, -10.24871130596, 0, 37.75128869404
781, -21, 0, 49.87564434702
782, -19.12435565298, 0, 42.87564434702
783, -12.12435565298, 0, 30.75128869404
784, -14, 0, 51.75128869404
785, -17.24871130596, 0, 35.87564434702
786, -12.12435565298, 0, 44.75128869404
787, -19.12435565298, 0, 56.87564434702
788, 0.9395326493808, -2.5, 202.2956103553
789, 4.131837053275, -4, 176.0190379145
790, -2.5, 0, 109.2574510266
791, 2.5, 0, 75.77497731396
792, 0, 0, 142.5149020532
793, -0.8681629467252, 4, 176.0190379145
794, -4.155104524945, 4, 176.1406074556
795, -4.155104524945, -4, 176.1406074556
796, 5.062177826491, 4, 71.33715514045
797, 5.062177826491, -4, 71.33715514045
798, 4.131837053275, 4, 176.0190379145
799, 4.131837053275, 1, 176.0190379145
800, -4.155104524945, 1, 176.1406074556
801, -4.375644347018, 4, 68.77497731396
802, -4.375644347018, -4, 68.77497731396
803, 0, 0, 157.5749926611
804, 0, 0, 172.635083269
805, -0.8681629467252, 1, 176.0190379145
806, 2.562177826491, 1, 71.56217782649
807, -1.875644347018, -4, 69
808, 2.562177826491, -4, 71.56217782649
809, -1.875644347018, 1, 69
810, -4.375644347018, 1, 68.77497731396
811, -1.875644347018, 4, 69
812, 2.562177826491, 4, 71.56217782649
813, 5.062177826491, 1, 71.33715514045
814, -6.86e-15, 0, 76
815, 2.5, 0, 109.2574510266
816, -2.5, 0, 75.77497731396
817, -0.8681629467252, -4, 176.0190379145


** Volume elements
*Element, TYPE=C3D10, ELSET=Evolumes
421, 394, 395, 224, 296, 425, 618, 619, 621, 620, 622
422, 381, 299, 385, 227, 624, 623, 437, 626, 625, 627
423, 230, 393, 394, 302, 629, 428, 628, 631, 630, 632
424, 386, 229, 301, 393, 635, 633, 634, 431, 636, 637
425, 396, 384, 231, 303, 419, 638, 639, 641, 640, 642
426, 300, 381, 382, 228, 644, 440, 643, 646, 645, 647
427, 384, 383, 234, 306, 416, 648, 649, 651, 650, 652
428, 224, 302, 394, 296, 653, 632, 619, 622, 330, 621
429, 394, 224, 230, 302, 619, 258, 628, 632, 653, 631
430, 386, 299, 301, 229, 654, 339, 634, 635, 655, 633
431, 381, 300, 299, 227, 644, 342, 624, 626, 656, 625
432, 300, 227, 381, 228, 656, 626, 644, 646, 270, 645
433, 384, 234, 231, 303, 649, 252, 638, 640, 657, 642
434, 233, 306, 383, 305, 659, 650, 658, 660, 321, 661
435, 229, 304, 301, 393, 662, 336, 633, 636, 663, 637
436, 393, 230, 304, 302, 629, 664, 663, 630, 631, 333
437, 382, 298, 300, 226, 665, 345, 643, 667, 666, 668
438, 384, 306, 234, 303, 651, 652, 649, 640, 324, 657
439, 234, 383, 233, 306, 648, 658, 249, 652, 650, 659
440, 229, 232, 304, 393, 264, 669, 662, 636, 670, 663
441, 304, 393, 232, 230, 663, 670, 669, 664, 629, 261
442, 382, 226, 300, 228, 667, 668, 643, 647, 273, 646
443, 389, 233, 383, 305, 671, 658, 411, 672, 660, 661
444, 382, 388, 298, 226, 441, 673, 665, 667, 674, 666
445, 133, 392, 132, 617, 469, 402, 135, 676, 675, 677
446, 572, 519, 565, 473, 679, 678, 606, 681, 680, 682
447, 133, 297, 387, 388, 684, 683, 407, 470, 685, 467
448, 133, 388, 392, 617, 470, 443, 469, 676, 686, 675
449, 22, 302, 224, 296, 687, 653, 254, 688, 330, 622
450, 22, 230, 224, 302, 256, 258, 254, 687, 631, 653
451, 305, 389, 233, 617, 672, 671, 660, 690, 689, 691
452, 94, 396, 395, 303, 451, 422, 452, 352, 641, 692
453, 71, 396, 231, 395, 417, 639, 279, 421, 422, 693
454, 229, 386, 385, 75, 635, 434, 694, 287, 430, 432
455, 223, 68, 391, 389, 240, 398, 695, 696, 412, 413
456, 24, 304, 229, 232, 697, 662, 262, 260, 669, 264
457, 388, 225, 392, 617, 699, 698, 443, 686, 700, 675
458, 388, 225, 78, 392, 699, 243, 442, 443, 698, 400
459, 518, 571, 472, 139, 703, 701, 702, 523, 704, 489
460, 396, 70, 231, 384, 418, 280, 639, 419, 414, 638
461, 384, 303, 396, 93, 640, 641, 419, 449, 351, 450
462, 225, 297, 1, 617, 706, 309, 705, 700, 707, 708
463, 42, 306, 233, 305, 320, 659, 709, 316, 321, 660
464, 42, 233, 306, 234, 709, 659, 320, 710, 249, 652
465, 389, 91, 390, 295, 446, 404, 447, 711, 313, 712
466, 185, 298, 388, 226, 714, 673, 713, 715, 666, 674
467, 388, 225, 185, 226, 699, 716, 713, 674, 274, 715
468, 298, 388, 297, 185, 673, 685, 346, 714, 713, 717
469, 297, 185, 388, 225, 717, 713, 685, 706, 716, 699
470, 512, 565, 519, 473, 718, 678, 553, 719, 682, 680
471, 387, 297, 101, 388, 683, 314, 406, 467, 685, 466
472, 515, 573, 516, 520, 721, 720, 563, 535, 722, 532
473, 515, 521, 567, 574, 538, 723, 724, 726, 725, 594
474, 571, 512, 569, 518, 728, 727, 582, 703, 526, 729
475, 381, 77, 382, 228, 436, 438, 440, 645, 291, 647
476, 224, 21, 22, 296, 253, 33, 254, 622, 730, 688
477, 382, 300, 100, 381, 643, 364, 465, 440, 644, 462
478, 572, 172, 519, 473, 603, 731, 679, 681, 481, 680
479, 234, 384, 69, 383, 649, 415, 278, 648, 416, 409
480, 384, 92, 383, 306, 448, 445, 416, 651, 349, 650
481, 231, 21, 224, 296, 251, 253, 255, 732, 730, 622
482, 229, 48, 227, 299, 734, 733, 267, 655, 338, 625
483, 297, 388, 133, 617, 685, 470, 684, 707, 686, 676
484, 395, 296, 94, 303, 620, 353, 452, 692, 327, 352
485, 231, 224, 71, 395, 255, 282, 279, 693, 618, 421
486, 229, 385, 227, 75, 694, 627, 267, 287, 432, 290
487, 49, 299, 300, 227, 337, 342, 341, 735, 625, 656
488, 296, 231, 21, 303, 732, 251, 730, 327, 642, 736
489, 48, 301, 299, 229, 334, 339, 338, 734, 633, 655
490, 227, 300, 26, 228, 656, 737, 266, 270, 646, 268
491, 234, 43, 306, 42, 738, 319, 652, 710, 54, 320
492, 20, 231, 234, 303, 250, 252, 248, 739, 642, 657
493, 304, 47, 229, 301, 331, 740, 662, 336, 335, 633
494, 300, 298, 27, 226, 345, 741, 742, 668, 666, 271
495, 234, 303, 306, 43, 657, 324, 652, 738, 323, 319
496, 226, 27, 300, 228, 271, 742, 668, 273, 269, 646
497, 162, 472, 571, 139, 486, 701, 575, 492, 489, 704
498, 2, 225, 1, 617, 238, 705, 17, 743, 700, 708
499, 1, 185, 297, 225, 187, 717, 309, 705, 716, 706
500, 233, 305, 186, 42, 660, 744, 745, 709, 316, 211
501, 305, 295, 389, 617, 318, 711, 672, 690, 746, 689
502, 78, 388, 382, 226, 442, 441, 439, 293, 674, 667
503, 297, 225, 388, 617, 706, 699, 685, 707, 700, 686
504, 515, 567, 511, 564, 724, 747, 562, 748, 615, 749
505, 564, 512, 511, 516, 750, 554, 749, 751, 558, 557
506, 564, 516, 511, 515, 751, 557, 749, 748, 563, 562
507, 515, 511, 567, 514, 562, 747, 724, 561, 560, 752
508, 565, 512, 564, 569, 718, 750, 609, 610, 727, 611
509, 569, 564, 568, 516, 611, 613, 616, 753, 751, 754
510, 516, 564, 568, 515, 751, 613, 754, 563, 748, 755
511, 564, 567, 568, 515, 615, 614, 613, 748, 724, 755
512, 564, 569, 512, 516, 611, 727, 750, 751, 753, 558
513, 233, 383, 68, 389, 658, 410, 276, 671, 411, 412
514, 515, 574, 142, 521, 726, 756, 534, 538, 725, 536
515, 567, 143, 574, 521, 758, 757, 594, 723, 537, 725
516, 171, 519, 572, 172, 759, 679, 604, 183, 731, 603
517, 518, 569, 571, 139, 729, 582, 703, 523, 760, 704
518, 164, 573, 515, 520, 583, 721, 761, 762, 722, 535
519, 140, 516, 573, 520, 528, 720, 763, 530, 532, 722
520, 223, 389, 391, 617, 696, 413, 695, 764, 689, 765
521, 223, 233, 389, 617, 246, 671, 696, 764, 691, 689
522, 70, 234, 231, 384, 277, 252, 280, 414, 649, 638
523, 303, 384, 306, 93, 640, 651, 324, 351, 449, 350
524, 565, 172, 572, 473, 578, 603, 606, 682, 481, 681
525, 233, 68, 223, 389, 276, 240, 246, 671, 412, 696
526, 233, 186, 305, 617, 745, 744, 660, 691, 766, 690
527, 296, 22, 302, 45, 688, 687, 330, 325, 206, 329
528, 387, 8, 297, 133, 405, 315, 683, 407, 136, 684
529, 573, 516, 568, 515, 720, 754, 588, 721, 563, 755
530, 573, 569, 568, 516, 585, 616, 588, 720, 753, 754
531, 515, 567, 521, 514, 724, 723, 538, 561, 752, 541
532, 512, 569, 565, 571, 727, 610, 718, 728, 582, 579
533, 567, 574, 568, 515, 594, 591, 614, 724, 726, 755
534, 516, 569, 512, 518, 753, 727, 558, 529, 729, 526
535, 226, 382, 77, 228, 667, 438, 294, 273, 647, 291
536, 300, 100, 298, 382, 364, 365, 345, 643, 465, 665
537, 514, 167, 570, 567, 768, 596, 767, 752, 592, 597
538, 234, 69, 233, 383, 278, 275, 249, 648, 409, 658
539, 383, 306, 92, 305, 650, 349, 445, 661, 321, 348
540, 78, 225, 388, 226, 243, 699, 442, 293, 274, 674
541, 304, 229, 47, 24, 662, 740, 331, 697, 262, 201
542, 49, 227, 48, 299, 735, 733, 60, 337, 625, 338
543, 21, 20, 303, 231, 32, 739, 736, 251, 250, 642
544, 301, 48, 47, 229, 334, 59, 335, 633, 734, 740
545, 27, 26, 300, 228, 38, 737, 742, 269, 268, 646
546, 566, 519, 565, 572, 769, 678, 608, 605, 679, 606
547, 233, 19, 234, 42, 245, 247, 249, 709, 210, 710
548, 300, 27, 298, 50, 742, 741, 345, 340, 221, 344
549, 164, 140, 573, 520, 494, 763, 583, 762, 530, 722
550, 142, 574, 143, 521, 756, 757, 154, 536, 725, 537
551, 185, 27, 298, 226, 220, 741, 714, 715, 271, 666
552, 295, 389, 91, 305, 711, 446, 313, 318, 672, 347
553, 2, 185, 1, 225, 188, 187, 17, 238, 716, 705
554, 298, 382, 101, 388, 665, 464, 366, 673, 441, 466
555, 186, 295, 305, 617, 770, 318, 744, 766, 746, 690
556, 186, 233, 223, 617, 745, 246, 771, 766, 691, 764
557, 383, 91, 389, 305, 444, 446, 411, 661, 347, 672
558, 519, 149, 512, 473, 551, 524, 553, 680, 478, 719
559, 521, 567, 143, 514, 723, 758, 537, 541, 752, 539
560, 569, 518, 516, 139, 729, 529, 753, 760, 523, 527
561, 162, 571, 569, 139, 575, 582, 581, 492, 704, 760
562, 165, 568, 574, 515, 586, 591, 590, 772, 755, 726
563, 164, 515, 573, 568, 761, 721, 583, 587, 755, 588
564, 569, 516, 573, 140, 753, 720, 585, 773, 528, 763
565, 298, 101, 297, 388, 366, 314, 346, 673, 466, 685
566, 22, 296, 21, 45, 688, 730, 33, 206, 325, 214
567, 295, 390, 389, 617, 712, 447, 711, 746, 774, 689
568, 229, 25, 47, 24, 263, 215, 740, 262, 36, 201
569, 512, 565, 564, 566, 718, 609, 750, 775, 608, 607
570, 564, 511, 512, 566, 749, 554, 750, 607, 776, 775
571, 567, 570, 514, 511, 597, 767, 752, 747, 777, 560
572, 511, 570, 564, 567, 777, 612, 749, 747, 597, 615
573, 164, 165, 515, 568, 176, 772, 761, 587, 586, 755
574, 569, 139, 516, 140, 760, 527, 753, 773, 151, 528
575, 162, 569, 163, 139, 581, 580, 174, 492, 760, 491
576, 186, 223, 2, 617, 771, 235, 190, 766, 764, 743
577, 295, 186, 1, 617, 770, 189, 308, 746, 766, 708
578, 133, 8, 297, 617, 136, 315, 684, 676, 778, 707
579, 2, 1, 186, 617, 17, 189, 190, 743, 708, 766
580, 519, 172, 149, 473, 731, 510, 551, 680, 481, 478
581, 519, 572, 566, 171, 679, 605, 769, 759, 604, 602
582, 42, 43, 19, 234, 54, 209, 210, 710, 738, 247
583, 167, 517, 144, 514, 779, 542, 499, 768, 544, 540
584, 570, 517, 167, 514, 780, 779, 596, 767, 544, 768
585, 27, 300, 49, 50, 742, 341, 218, 221, 340, 61
586, 170, 147, 169, 513, 507, 504, 181, 781, 547, 782
587, 517, 167, 145, 168, 779, 501, 543, 783, 179, 503
588, 229, 227, 48, 25, 267, 733, 734, 263, 265, 217
589, 296, 303, 21, 44, 327, 736, 730, 326, 322, 212
590, 300, 26, 49, 227, 737, 219, 341, 656, 266, 735
591, 20, 303, 234, 43, 739, 657, 248, 208, 323, 738
592, 519, 565, 512, 566, 678, 718, 553, 769, 608, 775
593, 567, 166, 574, 143, 593, 589, 594, 758, 497, 757
594, 519, 171, 149, 172, 759, 508, 551, 731, 183, 510
595, 165, 574, 142, 515, 590, 756, 495, 772, 726, 534
596, 520, 515, 164, 141, 535, 761, 762, 531, 533, 493
597, 569, 573, 163, 140, 585, 584, 580, 773, 763, 490
598, 227, 75, 385, 76, 290, 432, 627, 289, 87, 433
599, 395, 95, 94, 296, 453, 106, 452, 620, 354, 353
600, 224, 72, 71, 395, 281, 83, 282, 618, 420, 421
601, 98, 99, 299, 385, 110, 362, 361, 461, 460, 623
602, 233, 186, 19, 42, 745, 207, 245, 709, 211, 210
603, 298, 185, 50, 27, 714, 222, 344, 741, 220, 221
604, 391, 133, 132, 617, 468, 135, 401, 765, 676, 677
605, 143, 167, 514, 567, 500, 768, 539, 758, 592, 752
606, 515, 165, 141, 142, 772, 496, 533, 534, 495, 153
607, 515, 141, 165, 164, 533, 496, 772, 761, 493, 176
608, 139, 569, 163, 140, 760, 580, 491, 151, 773, 490
609, 382, 77, 78, 226, 438, 89, 439, 667, 294, 293
610, 169, 513, 566, 170, 782, 784, 600, 181, 781, 599
611, 168, 517, 167, 570, 783, 779, 179, 595, 780, 596
612, 167, 144, 517, 145, 499, 542, 779, 501, 156, 543
613, 513, 147, 169, 146, 547, 504, 782, 546, 158, 505
614, 73, 394, 72, 230, 423, 424, 84, 283, 628, 284
615, 301, 97, 98, 386, 359, 109, 360, 634, 459, 458
616, 394, 302, 96, 95, 632, 356, 455, 454, 355, 107
617, 229, 74, 386, 75, 288, 429, 635, 287, 86, 430
618, 70, 396, 231, 71, 418, 639, 280, 82, 417, 279
619, 396, 303, 94, 93, 641, 352, 451, 450, 351, 105
620, 389, 390, 133, 617, 447, 408, 471, 689, 774, 676
621, 298, 100, 101, 382, 365, 112, 366, 665, 465, 464
622, 233, 69, 68, 383, 275, 80, 276, 658, 409, 410
623, 91, 383, 92, 305, 444, 445, 103, 347, 661, 348
624, 232, 393, 74, 73, 670, 427, 285, 286, 426, 85
625, 97, 393, 304, 96, 456, 663, 358, 108, 457, 357
626, 234, 43, 19, 20, 738, 209, 247, 248, 208, 31
627, 27, 300, 26, 49, 742, 737, 38, 218, 341, 219
628, 25, 227, 48, 26, 265, 733, 217, 37, 266, 216
629, 49, 48, 227, 26, 60, 733, 735, 219, 216, 266
630, 21, 45, 296, 44, 214, 325, 730, 212, 56, 326
631, 69, 234, 70, 384, 278, 277, 81, 415, 649, 414
632, 92, 306, 384, 93, 349, 651, 448, 104, 350, 449
633, 303, 20, 44, 43, 739, 213, 322, 323, 208, 55
634, 229, 47, 25, 48, 740, 215, 263, 734, 59, 217
635, 303, 44, 20, 21, 322, 213, 739, 736, 212, 32
636, 91, 8, 390, 295, 102, 403, 404, 313, 312, 712
637, 381, 76, 77, 228, 435, 88, 436, 645, 292, 291
638, 99, 100, 300, 381, 111, 364, 363, 463, 462, 644
639, 18, 223, 2, 186, 236, 235, 29, 193, 771, 190
640, 295, 1, 186, 41, 308, 189, 770, 307, 52, 191
641, 41, 186, 305, 42, 191, 744, 317, 53, 211, 316
642, 297, 1, 51, 185, 309, 63, 310, 717, 187, 192
643, 185, 225, 2, 28, 716, 238, 188, 194, 237, 40
644, 50, 298, 51, 185, 344, 343, 62, 222, 714, 192
645, 164, 573, 140, 163, 583, 763, 494, 175, 584, 490
646, 140, 164, 141, 520, 494, 493, 152, 530, 762, 531
647, 142, 143, 574, 166, 154, 757, 756, 498, 497, 589
648, 519, 148, 149, 171, 550, 160, 551, 759, 509, 508
649, 574, 142, 166, 165, 756, 498, 589, 590, 495, 177
650, 513, 512, 511, 566, 555, 554, 556, 784, 775, 776
651, 511, 570, 514, 517, 777, 767, 560, 559, 780, 544
652, 511, 566, 564, 570, 776, 607, 749, 777, 601, 612
653, 146, 513, 517, 169, 546, 548, 545, 505, 782, 785
654, 169, 517, 566, 513, 785, 786, 600, 782, 548, 784
655, 169, 566, 517, 570, 600, 786, 785, 598, 601, 780
656, 166, 567, 167, 143, 593, 592, 178, 497, 758, 500
657, 101, 8, 297, 387, 113, 315, 314, 406, 405, 683
658, 1, 297, 295, 617, 309, 311, 308, 708, 707, 746
659, 223, 225, 2, 617, 239, 238, 235, 764, 700, 743
660, 186, 305, 295, 41, 744, 318, 770, 191, 317, 307
661, 223, 18, 233, 186, 236, 244, 246, 771, 193, 745
662, 28, 185, 225, 226, 194, 716, 237, 272, 715, 274
663, 297, 51, 298, 185, 310, 343, 346, 717, 192, 714
664, 519, 512, 513, 566, 553, 555, 552, 769, 775, 784
665, 389, 133, 391, 617, 471, 468, 413, 689, 676, 765
666, 148, 519, 513, 171, 550, 552, 549, 509, 759, 787
667, 143, 514, 167, 144, 539, 768, 500, 155, 540, 499
668, 147, 170, 148, 513, 507, 506, 159, 547, 781, 549
669, 513, 170, 148, 171, 781, 506, 549, 787, 182, 509
670, 391, 223, 7, 68, 695, 241, 397, 398, 240, 79
671, 7, 225, 223, 617, 242, 239, 241, 788, 700, 764
672, 297, 8, 295, 617, 315, 312, 311, 707, 778, 746
673, 19, 233, 18, 186, 245, 244, 30, 207, 745, 193
674, 185, 28, 27, 226, 194, 39, 220, 715, 272, 271
675, 225, 7, 78, 392, 242, 90, 243, 698, 399, 400
676, 513, 511, 517, 566, 556, 559, 548, 784, 776, 786
677, 566, 511, 517, 570, 776, 559, 786, 601, 777, 780
678, 170, 513, 566, 171, 781, 784, 599, 182, 787, 602
679, 145, 146, 517, 168, 157, 545, 543, 503, 502, 783
680, 566, 513, 519, 171, 784, 552, 769, 602, 787, 759
681, 6, 230, 23, 22, 789, 257, 197, 204, 256, 34
682, 14, 117, 9, 114, 790, 369, 130, 379, 368, 115
683, 14, 13, 11, 126, 131, 129, 791, 380, 127, 376
684, 14, 126, 117, 114, 380, 792, 790, 379, 378, 368
685, 168, 146, 517, 169, 502, 545, 783, 180, 505, 785
686, 570, 168, 517, 169, 595, 783, 780, 598, 180, 785
687, 304, 302, 4, 46, 333, 793, 794, 332, 328, 199
688, 23, 3, 24, 232, 198, 195, 35, 259, 795, 260
689, 15, 162, 11, 571, 173, 485, 482, 576, 575, 796
690, 16, 518, 13, 139, 522, 797, 487, 150, 523, 488
691, 5, 46, 302, 45, 200, 328, 798, 205, 57, 329
692, 22, 6, 230, 302, 204, 789, 256, 687, 799, 631
693, 304, 4, 47, 46, 794, 202, 331, 332, 199, 58
694, 304, 24, 3, 232, 697, 195, 800, 669, 260, 795
695, 565, 10, 15, 172, 801, 479, 577, 578, 480, 184
696, 16, 149, 9, 512, 161, 477, 476, 525, 524, 802
697, 5, 302, 22, 45, 798, 687, 203, 205, 329, 206
698, 4, 304, 47, 24, 794, 331, 202, 196, 697, 201
699, 4, 126, 5, 6, 803, 374, 65, 804, 128, 66
700, 3, 126, 4, 6, 377, 803, 64, 67, 128, 804
701, 302, 5, 4, 46, 798, 65, 793, 328, 200, 199
702, 4, 3, 302, 304, 64, 805, 793, 794, 800, 333
703, 6, 22, 5, 302, 204, 203, 66, 799, 687, 798
704, 512, 571, 14, 518, 728, 806, 807, 526, 703, 808
705, 4, 5, 126, 121, 65, 374, 803, 370, 123, 375
706, 117, 126, 4, 3, 792, 803, 119, 367, 377, 64
707, 304, 4, 3, 24, 794, 64, 800, 697, 196, 195
708, 565, 14, 512, 571, 809, 807, 718, 579, 806, 728
709, 9, 565, 512, 473, 810, 718, 802, 475, 682, 719
710, 10, 172, 565, 473, 480, 578, 801, 474, 481, 682
711, 9, 512, 149, 473, 802, 524, 477, 475, 719, 478
712, 117, 126, 3, 114, 792, 377, 367, 368, 378, 116
713, 126, 4, 121, 117, 803, 370, 375, 792, 119, 371
714, 12, 565, 15, 571, 811, 577, 137, 812, 579, 576
715, 512, 14, 16, 518, 807, 138, 525, 526, 808, 522
716, 302, 6, 4, 5, 799, 804, 793, 798, 66, 65
717, 302, 4, 6, 3, 793, 804, 799, 805, 64, 67
718, 472, 13, 571, 518, 483, 813, 701, 702, 797, 703
719, 11, 571, 162, 472, 796, 575, 485, 484, 701, 486
720, 13, 518, 472, 139, 797, 702, 483, 488, 523, 489
721, 14, 565, 12, 571, 809, 811, 814, 806, 579, 812
722, 10, 565, 9, 473, 801, 810, 120, 474, 682, 475
723, 14, 512, 9, 565, 807, 802, 130, 809, 718, 810
724, 10, 15, 12, 565, 479, 137, 124, 801, 577, 811
725, 16, 9, 14, 512, 476, 130, 138, 525, 802, 807
726, 571, 13, 14, 518, 813, 131, 806, 703, 797, 808
727, 571, 11, 13, 472, 796, 129, 813, 701, 484, 483
728, 13, 16, 14, 518, 487, 138, 131, 797, 522, 808
729, 12, 15, 11, 571, 137, 482, 125, 812, 576, 796
730, 571, 14, 11, 12, 806, 791, 796, 812, 814, 125
731, 571, 11, 14, 13, 796, 791, 806, 813, 129, 131
732, 76, 227, 381, 385, 289, 626, 435, 433, 627, 437
733, 381, 227, 76, 228, 626, 289, 435, 645, 270, 292
734, 99, 299, 381, 300, 362, 624, 463, 363, 342, 644
735, 299, 99, 381, 385, 362, 463, 624, 623, 460, 437
736, 98, 386, 299, 301, 458, 654, 361, 360, 634, 339
737, 299, 386, 98, 385, 654, 458, 361, 623, 434, 461
738, 299, 385, 229, 386, 623, 694, 655, 654, 434, 635
739, 385, 299, 229, 227, 623, 655, 694, 627, 625, 267
740, 231, 395, 296, 224, 693, 620, 732, 255, 618, 622
741, 231, 303, 395, 396, 642, 692, 693, 639, 641, 422
742, 395, 303, 231, 296, 692, 642, 693, 620, 327, 732
743, 95, 296, 394, 302, 354, 621, 454, 355, 330, 632
744, 394, 296, 95, 395, 621, 354, 454, 425, 620, 453
745, 72, 394, 224, 230, 424, 619, 281, 284, 628, 258
746, 394, 72, 224, 395, 424, 281, 619, 425, 420, 618
747, 96, 393, 302, 394, 457, 630, 356, 455, 428, 632
748, 393, 96, 302, 304, 457, 356, 630, 663, 357, 333
749, 73, 393, 230, 232, 426, 629, 283, 286, 670, 261
750, 393, 73, 230, 394, 426, 283, 629, 428, 423, 628
751, 97, 393, 301, 304, 456, 637, 359, 358, 663, 336
752, 301, 393, 97, 386, 637, 456, 359, 634, 431, 459
753, 74, 229, 393, 232, 288, 636, 427, 285, 264, 670
754, 229, 74, 393, 386, 288, 427, 636, 635, 429, 431
755, 7, 617, 392, 225, 788, 675, 399, 242, 700, 698
756, 392, 617, 7, 132, 675, 788, 399, 402, 677, 134
757, 391, 7, 617, 132, 397, 788, 765, 401, 134, 677
758, 7, 391, 617, 223, 397, 765, 788, 241, 695, 764
759, 390, 617, 8, 133, 774, 778, 403, 408, 676, 136
760, 8, 617, 390, 295, 778, 774, 403, 312, 746, 712
761, 126, 12, 11, 14, 815, 125, 376, 380, 814, 791
762, 12, 126, 11, 121, 815, 376, 125, 373, 375, 122
763, 12, 126, 117, 14, 815, 792, 372, 814, 380, 790
764, 126, 12, 117, 121, 815, 372, 792, 375, 373, 371
765, 9, 117, 12, 10, 369, 372, 816, 120, 118, 124
766, 12, 117, 9, 14, 372, 369, 816, 814, 790, 130
767, 12, 565, 9, 10, 811, 810, 816, 124, 801, 120
768, 9, 565, 12, 14, 810, 811, 816, 130, 809, 814
769, 230, 232, 3, 23, 261, 795, 817, 257, 259, 198
770, 3, 232, 230, 304, 795, 261, 817, 800, 669, 664
771, 230, 302, 3, 304, 631, 805, 817, 664, 333, 800
772, 230, 6, 3, 302, 789, 67, 817, 631, 799, 805
773, 3, 6, 230, 23, 67, 789, 817, 198, 197, 257

** Define element set Eall
*ELSET, ELSET=Eall
Evolumes



***********************************************************
** Element sets for materials and FEM element type (solid, shell, beam, fluid)
*ELSET,ELSET=FEMPart002_MaterialSolid
Evolumes

** Physical constants for SI(mm) unit system with Kelvins
*PHYSICAL CONSTANTS, ABSOLUTE ZERO=0, STEFAN BOLTZMANN=5.670374419e-11

***********************************************************
** Materials
** see information about units at file end
** FreeCAD material name: CalculiX-Steel
** Material (FEMPart (LongPendulum001))
*MATERIAL, NAME=FEMPart002_Material
*ELASTIC
210000,0.3
*DENSITY
7.9E-09
*EXPANSION, ZERO=0
1.2E-05

***********************************************************
** Sections
*SOLID SECTION, ELSET=FEMPart002_MaterialSolid, MATERIAL=FEMPart002_Material

***********************************************************
** At least one step is needed to run an CalculiX analysis of FreeCAD

***********************************************************
** MbDJoint FacePair CLOADs
*NSET,NSET=NSU1
8,100,101,111,112,113,133,135,136,381,382,387,388,405,406,407
440,441,462,463,464,465,466,467,470
*NSET,NSET=NSU2
91,92,93,102,103,104,383,384,389,390,403,404,408,411,416,419
444,445,446,447,448,449,471
*NSET,NSET=NSU3
94,95,96,105,106,107,394,396,422,425,428,450,451,452,453,454
455
*NSET,NSET=NSU4
97,98,99,108,109,110,385,386,393,431,434,437,456,457,458,459
460,461
*NSET,NSET=NSL1
7,77,78,88,89,90,132,134,392,399,400,402,435,436,438,439
442,443,469
*NSET,NSET=NSL2
68,69,70,79,80,81,391,397,398,401,409,410,412,413,414,415
468
*NSET,NSET=NSL3
71,72,73,82,83,84,395,417,418,420,421,423,424
*NSET,NSET=NSL4
74,75,76,85,86,87,426,427,429,430,432,433
*NSET,NSET=NS1
*NSET,NSET=NS2
*NSET,NSET=NS3
*NSET,NSET=NS4

***********************************************************
** Automatic 3-2-1 constraints
** nodeXYZ 157: x=-19.7989898732, y=-5, z=28.2010101268
** nodeYZ 154: x=19.7989898732, y=-5, z=28.2010101268
** nodeZ 177: x=19.7989898732, y=5, z=28.2010101268
*NSET,NSET=MbDFEM321Constraints
157,154,177
*STEP, INC=2000
*STATIC
1.0,1.0,1e-05,1.0
*BOUNDARY
157,1,1,0
157,2,2,0
157,3,3,0
154,2,2,0
154,3,3,0
177,3,3,0
** reaction forces for automatic 3-2-1 constraint nodes
*NODE PRINT,NSET=MbDFEM321Constraints
RF

***********************************************************
** MbDJoint FacePair CLOADs
*CLOAD
** MbDFEM transverse_force
8,1,-0.0005239720706523
8,3,1.368336801843E-05
100,1,-0.01763814979114
100,3,0.0004606148080676
101,1,-0.01048590594596
101,3,0.0002738361796394
111,1,-0.01951620632186
111,3,0.0005096596715415
112,1,-0.01455808250057
112,3,0.0003801798066259
113,1,-0.005699132229909
113,3,0.0001488310695462
133,1,-0.0005239720706523
133,3,1.368336801843E-05
135,1,-0.0005239720706523
135,3,1.368336801843E-05
136,1,-0.0005239720706523
136,3,1.368336801843E-05
381,1,-0.01956986513923
381,3,0.0005110609549049
382,1,-0.01515279150717
382,3,0.0003957104477745
387,1,-0.005699132229909
387,3,0.0001488310695462
388,1,-0.008829133311741
388,3,0.0002305700764507
405,1,-0.003138401611128
405,3,8.195838412005E-05
406,1,-0.008162349116138
406,3,0.0002131572141087
407,1,-0.003138401611128
407,3,8.195838412005E-05
440,1,-0.01789855509041
440,3,0.0004674152116453
441,1,-0.0122349774653
441,3,0.0003195126395697
462,1,-0.01877937131935
462,3,0.0004904174541165
463,1,-0.01997298053437
463,3,0.0005215881883483
464,1,-0.01297074905653
464,3,0.0003387270863391
465,1,-0.01649309999258
465,3,0.0004307121879269
466,1,-0.009668248164527
466,3,0.0002524833004248
467,1,-0.007289704723809
467,3,0.0001903683766148
470,1,-0.004786432414179
470,3,0.0001249961971007
97,1,-0.01332474279725
97,3,0.0003479715230217
98,1,-0.02380804474938
98,3,0.0006217397001704
99,1,-0.02791200033755
99,3,0.0007289132267561
108,1,-0.006520081163419
108,3,0.000170269896176
109,1,-0.01922134522963
109,3,0.0005019594656235
110,1,-0.02677226536412
110,3,0.0006991494016241
385,1,-0.02677226536412
385,3,0.0006991494016241
386,1,-0.01922134522963
386,3,0.0005019594656235
393,1,-0.006520081163419
393,3,0.000170269896176
431,1,-0.01332474279725
431,3,0.0003479715230217
434,1,-0.02380804474938
434,3,0.0006217397001704
437,1,-0.0279072426806
437,3,0.0007287889820211
456,1,-0.01000803208217
456,3,0.0002613566519875
457,1,-0.002920569848251
457,3,7.626977523324E-05
458,1,-0.02170034444446
458,3,0.0005666977607997
459,1,-0.01641346346875
459,3,0.000428632504821
460,1,-0.02757806703738
460,3,0.0007201926622532
461,1,-0.0255083828078
461,3,0.0006661435008923
7,1,-0.0005908341554783
7,3,1.542945061404E-05
77,1,-0.01988888706047
77,3,0.0005193921133747
78,1,-0.01182397255696
78,3,0.0003087793739373
88,1,-0.02200659524841
88,3,0.0005746954055046
89,1,-0.01641578408731
89,3,0.0004286931070545
90,1,-0.006426376836891
90,3,0.0001678228367684
132,1,-0.0005908341554783
132,3,1.542945061404E-05
134,1,-0.0005908341554783
134,3,1.542945061404E-05
392,1,-0.005712940584986
392,3,0.0001491916704538
399,1,-0.00317267571895
399,3,8.285344180937E-05
400,1,-0.008864399317506
400,3,0.000231491037247
402,1,-0.00317267571895
402,3,8.285344180937E-05
435,1,-0.02252165668242
435,3,0.0005881460750124
436,1,-0.02117573553123
436,3,0.0005529977618349
438,1,-0.01859772180835
438,3,0.0004856737335087
439,1,-0.01462589705439
439,3,0.0003819507626536
442,1,-0.01090197657316
442,3,0.0002847017349478
443,1,-0.007873815119871
443,3,0.0002056222383383
469,1,-0.00317267571895
469,3,8.285344180937E-05
74,1,-0.01278887192748
74,3,0.0003339774215569
75,1,-0.02285057503748
75,3,0.0005967356757799
76,1,-0.02678948501959
76,3,0.0006995990875828
85,1,-0.006257868104814
85,3,0.0001634222835243
86,1,-0.01844833526291
86,3,0.0004817725502343
87,1,-0.0256955858856
87,3,0.0006710322511735
426,1,-0.002803115550737
426,3,7.32024927038E-05
427,1,-0.009605546800608
427,3,0.0002508458737645
429,1,-0.01575337590993
429,3,0.0004113945230705
430,1,-0.02082763848468
430,3,0.0005439073154909
432,1,-0.024482531916
432,3,0.0006393537232099
433,1,-0.02646898125654
433,3,0.0006912292312742
** MbDFEM axial_force
** MbDFEM bending_torque
8,1,-3.674499779792E-15
8,3,1.228219797491E-15
68,1,3.457938660493E-15
68,3,-1.15583316801E-15
69,1,1.147952275752E-14
69,3,-3.837087484418E-15
70,1,1.642517800218E-14
70,3,-5.490197308089E-15
71,1,1.212462712818E-14
71,3,-4.052716823642E-15
72,1,9.264910752323E-15
72,3,-3.096842424804E-15
73,1,3.922669022433E-15
73,3,-1.311171599153E-15
80,1,7.732199000932E-15
80,3,-2.584525911068E-15
81,1,1.444453600899E-14
81,3,-4.828157886792E-15
82,1,1.72864712584E-14
82,3,-5.77808885582E-15
83,1,1.107203953883E-14
83,3,-3.700884195173E-15
84,1,6.826393609031E-15
84,3,-2.281755960958E-15
85,1,7.516210244729E-16
85,3,-2.512330596793E-16
97,1,-2.755420404953E-15
97,3,9.210129526708E-16
98,1,-9.14733150318E-15
98,3,3.057540976926E-15
99,1,-1.308822251223E-14
99,3,4.374803365589E-15
100,1,-1.135755768784E-14
100,3,3.796320054246E-15
101,1,-8.678762425409E-15
101,3,2.900919435955E-15
102,1,-7.040694162875E-16
102,3,2.353386985211E-16
109,1,-6.16131776591E-15
109,3,2.059451057894E-15
110,1,-1.150996971519E-14
110,3,3.847264531206E-15
111,1,-1.377453457437E-14
111,3,4.604206580312E-15
112,1,-1.037156247816E-14
112,3,3.466746259353E-15
113,1,-6.394519055702E-15
113,3,2.137399746992E-15
133,1,-1.224833259931E-15
133,3,4.094065991638E-16
135,1,-6.527222815209E-31
135,3,2.18175663756E-31
136,1,-2.449666519862E-15
136,3,8.188131983275E-16
381,1,-1.126064544871E-18
381,3,3.763926657092E-19
382,1,-1.81809204277E-17
382,3,6.077062932134E-18
387,1,-4.263012703802E-15
387,3,1.424933164661E-15
388,1,-6.049447189808E-16
388,3,2.022057762328E-16
390,1,-4.693796108583E-16
390,3,1.568924656807E-16
395,1,1.966789316091E-30
395,3,-6.574090951924E-31
398,1,6.591796667546E-16
398,3,-2.203340768352E-16
403,1,-1.840146540446E-15
403,3,6.150781185755E-16
405,1,-4.231626667545E-15
405,3,1.414442226192E-15
406,1,-6.334728430344E-15
406,3,2.117414433569E-15
407,1,-2.538976000527E-15
407,3,8.48665335715E-16
408,1,-1.104087924268E-15
408,3,3.690468711453E-16
409,1,4.992784752564E-15
409,3,-1.668863095716E-15
410,1,2.996251000542E-15
410,3,-1.001511775115E-15
412,1,1.226015344501E-15
412,3,-4.098017168011E-16
413,1,1.957889754824E-17
413,3,-6.544343726471E-18
414,1,7.805509218395E-15
414,3,-2.609030215284E-15
415,1,6.569612158624E-15
415,3,-2.195925486086E-15
417,1,6.17169181499E-15
417,3,-2.062918635313E-15
418,1,8.500636438284E-15
418,3,-2.841379940256E-15
420,1,5.128109258384E-15
420,3,-1.714095983754E-15
421,1,5.849207447319E-15
421,3,-1.95512663409E-15
423,1,2.710453967296E-15
423,3,-9.059826975986E-16
424,1,4.057538898093E-15
424,3,-1.356252524802E-15
426,1,1.178656077865E-15
426,3,-3.939716467609E-16
437,1,-5.343392695203E-19
437,3,1.786055541522E-19
440,1,-1.026847221689E-17
440,3,3.432287827619E-18
441,1,-3.6881456538E-16
441,3,1.232780998638E-16
456,1,-4.834273131545E-16
456,3,1.615879799285E-16
458,1,-3.860186750042E-15
458,3,1.290286589344E-15
459,1,-2.248420088261E-15
459,3,7.515455792557E-16
460,1,-6.202612264623E-15
460,3,2.073253949141E-15
461,1,-5.208888064068E-15
461,3,1.741096700669E-15
462,1,-5.783993458619E-15
462,3,1.933328534541E-15
463,1,-6.766362306375E-15
463,3,2.261690199954E-15
464,1,-4.88233123544E-15
464,3,1.631943459149E-15
465,1,-5.528919021064E-15
465,3,1.84806863719E-15
466,1,-4.471010965215E-15
466,3,1.494457616375E-15
467,1,-2.668057523477E-15
467,3,8.918114757283E-16
470,1,-1.215314384412E-15
470,3,4.062248677546E-16
471,1,-2.557142727796E-16
471,3,8.547376545135E-17
** MbDFEM axial_torque
7,1,-7.123700192798E-14
7,3,-1.7809250482E-29
8,1,-8.57037779583E-14
8,3,-2.142594448957E-29
68,1,-5.844051788643E-14
68,3,3.374064873331E-14
69,1,-3.374064873331E-14
69,3,5.844051788643E-14
70,3,6.748129746662E-14
71,1,5.356974307418E-14
71,3,9.278551675289E-14
72,1,9.278551675289E-14
72,3,5.356974307418E-14
73,1,1.071394861484E-13
73,3,-6.054125638384E-28
74,1,8.340633046662E-14
74,3,-4.815466734702E-14
75,1,4.815466734702E-14
75,3,-8.340633046662E-14
76,3,-9.630933469404E-14
77,1,-3.561850096399E-14
77,3,-6.169305335908E-14
78,1,-6.169305335908E-14
78,3,-3.561850096399E-14
79,1,-6.51819280145E-14
79,3,1.746544497259E-14
80,1,-4.771648304191E-14
80,3,4.771648304191E-14
81,1,-1.746544497259E-14
81,3,6.51819280145E-14
82,1,2.772973949769E-14
82,3,1.03488796686E-13
83,1,7.575905718835E-14
83,3,7.575905718835E-14
84,1,1.03488796686E-13
84,3,2.772973949769E-14
85,1,9.302767369369E-14
85,3,-2.492669003997E-14
86,1,6.810098365372E-14
86,3,-6.810098365372E-14
87,1,2.492669003997E-14
87,3,-9.302767369369E-14
88,1,-1.843749281497E-14
88,3,-6.880965994964E-14
89,1,-5.037216713468E-14
89,3,-5.037216713468E-14
90,1,-6.880965994964E-14
90,3,-1.843749281497E-14
91,1,-8.024566544482E-14
91,3,4.632985654587E-14
92,1,-4.632985654587E-14
92,3,8.024566544482E-14
93,3,9.265971309173E-14
94,1,7.387554238432E-14
94,3,1.279561928463E-13
95,1,1.279561928463E-13
95,3,7.387554238432E-14
96,1,1.477510847686E-13
96,3,-8.348963230589E-28
97,1,1.253484945689E-13
97,3,-7.236998708186E-14
98,1,7.236998708186E-14
98,3,-1.253484945689E-13
99,3,-1.447399741637E-13
100,1,-4.285188897915E-14
100,3,-7.422164891219E-14
101,1,-7.422164891219E-14
101,3,-4.285188897915E-14
102,1,-8.950240993184E-14
102,3,2.398209846188E-14
103,1,-6.552031146996E-14
103,3,6.552031146996E-14
104,1,-2.398209846187E-14
104,3,8.950240993184E-14
105,1,3.824079467268E-14
105,3,1.427165886403E-13
106,1,1.044757939676E-13
106,3,1.044757939676E-13
107,1,1.427165886403E-13
107,3,3.824079467268E-14
108,1,1.398080791411E-13
108,3,-3.746146190122E-14
109,1,1.023466172399E-13
109,3,-1.023466172399E-13
110,1,3.746146190121E-14
110,3,-1.398080791411E-13
111,1,-2.218176997285E-14
111,3,-8.278349254046E-14
112,1,-6.060172256762E-14
112,3,-6.060172256762E-14
113,1,-8.278349254046E-14
113,3,-2.218176997284E-14
132,1,-7.123700192798E-14
132,3,-1.745306547236E-29
133,1,-8.57037779583E-14
133,3,-2.099742559978E-29
134,1,-7.123700192798E-14
134,3,-1.745306547236E-29
135,1,-8.57037779583E-14
135,3,-2.099742559978E-29
136,1,-8.57037779583E-14
136,3,-2.099742559978E-29
381,1,-2.120874234248E-14
381,3,-8.303810453386E-14
382,1,-5.787244125988E-14
382,3,-6.321327470514E-14
383,1,-6.256951479628E-14
383,3,6.834382377655E-14
384,1,-2.293009745086E-14
384,3,8.977768687784E-14
385,1,3.746146190121E-14
385,3,-1.398080791411E-13
386,1,1.023466172399E-13
386,3,-1.023466172399E-13
387,1,-8.278349254046E-14
387,3,-2.218176997285E-14
388,1,-7.792427566949E-14
388,3,-3.567835222807E-14
389,1,-8.424880674373E-14
389,3,3.857409742948E-14
390,1,-8.950240993184E-14
390,3,2.398209846188E-14
391,1,-6.571845878078E-14
391,3,1.532350101175E-14
392,1,-6.937605159691E-14
392,3,-1.617633792026E-14
393,1,1.398080791411E-13
393,3,-3.746146190122E-14
394,1,1.427165886403E-13
394,3,3.824079467268E-14
395,1,7.575905718835E-14
395,3,7.575905718835E-14
396,1,3.824079467268E-14
396,3,1.427165886403E-13
397,1,-6.703913921663E-14
397,3,7.712283765031E-15
398,1,-6.27587500219E-14
398,3,2.480050006486E-14
399,1,-7.077023514534E-14
399,3,-8.141514672423E-15
400,1,-6.625161880623E-14
400,3,-2.61807839692E-14
401,1,-6.703913921663E-14
401,3,7.712283765031E-15
402,1,-7.077023514534E-14
402,3,-8.141514672423E-15
403,1,-9.186699640117E-14
403,3,1.209451952207E-14
404,1,-8.560641241382E-14
404,3,3.545933704791E-14
405,1,-8.497057025708E-14
405,3,-1.118658779577E-14
406,1,-7.917996631456E-14
406,3,-3.279741591574E-14
407,1,-8.497057025708E-14
407,3,-1.118658779577E-14
408,1,-9.186699640117E-14
408,3,1.209451952207E-14
409,1,-3.989020369302E-14
409,3,5.442882652701E-14
410,1,-5.261819487079E-14
410,3,4.224986480828E-14
411,1,-7.490303089095E-14
411,3,5.45468458629E-14
412,1,-5.996474281539E-14
412,3,3.095085017997E-14
413,1,-6.385713132548E-14
413,3,2.181724745835E-14
414,1,-8.415344784866E-15
414,3,6.695451799491E-14
415,1,-2.545770327757E-14
415,3,6.249504661659E-14
416,1,-4.407265076512E-14
416,3,8.150720142894E-14
417,1,4.100050630109E-14
417,3,9.898397837625E-14
418,1,1.398450916336E-14
418,3,1.06222892992E-13
419,1,5.437102914659E-16
419,3,9.26581178816E-14
420,1,8.499946921289E-14
420,3,6.522238669094E-14
421,1,6.522238669094E-14
421,3,8.499946921289E-14
422,1,7.387554238432E-14
422,3,1.279561928463E-13
423,1,1.06222892992E-13
423,3,1.398450916336E-14
424,1,9.898397837625E-14
424,3,4.100050630109E-14
425,1,1.279561928463E-13
425,3,7.387554238432E-14
426,1,9.548539498474E-14
426,3,-1.257089073286E-14
427,1,8.89782231136E-14
427,3,-3.685598676951E-14
428,1,1.477510847686E-13
428,3,-7.692816605695E-28
429,1,7.640733238074E-14
429,3,-5.862940821522E-14
430,1,5.862940821522E-14
430,3,-7.640733238074E-14
431,1,1.253484945689E-13
431,3,-7.236998708186E-14
432,1,3.685598676951E-14
432,3,-8.89782231136E-14
433,1,1.257089073286E-14
433,3,-9.548539498474E-14
434,1,7.236998708186E-14
434,3,-1.253484945689E-13
435,1,-8.883704895578E-15
435,3,-7.068090428833E-14
436,1,-2.687456414666E-14
436,3,-6.597323885952E-14
437,1,8.493077618454E-16
437,3,-1.447374823508E-13
438,1,-4.211031239868E-14
438,3,-5.74580893641E-14
439,1,-5.554668612162E-14
439,3,-4.460130160202E-14
440,1,-4.076413091705E-14
440,3,-7.5388481792E-14
441,1,-6.928008423172E-14
441,3,-5.04520315267E-14
442,1,-6.330210976847E-14
442,3,-3.267343481405E-14
443,1,-6.741113105596E-14
443,3,-2.303149698659E-14
444,1,-7.225093504677E-14
444,3,5.801400533586E-14
445,1,-5.477391467161E-14
445,3,7.473714405695E-14
446,1,-8.233860452434E-14
446,3,4.249913687626E-14
447,1,-8.718143685744E-14
447,3,3.138820634751E-14
448,1,-3.495640377752E-14
448,3,8.581300755238E-14
449,1,-1.155525253081E-14
449,3,9.19363832723E-14
450,1,1.928538649123E-14
450,3,1.464870537563E-13
451,1,5.654189225493E-14
451,3,1.365042031241E-13
452,1,8.994516150134E-14
452,3,1.172188166329E-13
453,1,1.172188166329E-13
453,3,8.994516150134E-14
454,1,1.365042031241E-13
454,3,5.654189225493E-14
455,1,1.464870537563E-13
455,3,1.928538649123E-14
456,1,1.337222996661E-13
456,3,-5.53895901134E-14
457,1,1.4350170362E-13
457,3,-1.889235768962E-14
458,1,8.811211350659E-14
458,3,-1.148299419764E-13
459,1,1.148299419764E-13
459,3,-8.811211350659E-14
460,1,1.889235768962E-14
460,3,-1.4350170362E-13
461,1,5.53895901134E-14
461,3,-1.337222996661E-13
462,1,-3.233223768569E-14
462,3,-7.937105242191E-14
463,1,-1.06878034057E-14
463,3,-8.50347482779E-14
464,1,-6.68270803774E-14
464,3,-5.365891244293E-14
465,1,-5.066205435231E-14
465,3,-6.912665046948E-14
466,1,-7.615747172198E-14
466,3,-3.930874021438E-14
467,1,-8.063675417512E-14
467,3,-2.903190369965E-14
468,1,-6.703913921663E-14
468,3,7.712283765031E-15
469,1,-7.077023514534E-14
469,3,-8.141514672423E-15
470,1,-8.373631940761E-14
470,3,-1.825832326346E-14
471,1,-9.053257063465E-14
471,3,1.974021490571E-14

***********************************************************
** MbDPart D'Alembert element loads
*DLOAD
421,GRAV,724.0625338974,-0.7674864585849,5.735402511948E-13,-0.6410651572881
422,GRAV,724.7339873245,-0.1734646814272,6.261024536613E-13,0.984840090724
423,GRAV,717.9515569456,-0.98622132892,5.677271368457E-13,-0.1654312255388
424,GRAV,717.9517175049,-0.7801793737536,5.879338615168E-13,0.6255558686237
425,GRAV,718.6140376224,-0.1537163803045,6.174110931468E-13,-0.988115010728
426,GRAV,712.6339859712,0.3345574248025,6.710678743409E-13,0.9423753655044
427,GRAV,712.1221186538,0.3494407748225,6.578696209821E-13,-0.9369584541971
428,GRAV,798.4551241298,-0.8479187028244,5.101559043355E-13,-0.5301262806168
429,GRAV,800.4799714043,-0.9177954507944,5.049892597495E-13,-0.3970535360642
430,GRAV,800.4802132445,-0.607447723735,5.354253917767E-13,0.7943596559047
431,GRAV,796.2306275597,-0.04143756235058,5.786146400992E-13,0.9991410953546
432,GRAV,794.3643053788,0.1055002587417,5.899319340553E-13,0.9944192754595
433,GRAV,790.2606229868,-0.02033211580521,5.687791797373E-13,-0.9997932811671
434,GRAV,795.6992215864,0.5965285733664,6.08376423455E-13,-0.8025918397027
435,GRAV,789.8040683623,-0.8567079554783,5.239889894655E-13,0.5158017826842
436,GRAV,789.8039571075,-0.9994785707242,5.099873261674E-13,-0.03228911059687
437,GRAV,795.3053543198,0.5833493598796,6.203705099746E-13,0.8122213518051
438,GRAV,791.217963321,0.1245438023156,5.780050462338E-13,-0.9922141106156
439,GRAV,787.2844770637,0.4745827861261,6.056012493768E-13,-0.8802108719578
440,GRAV,790.9936289772,-0.9223480864689,5.176386240294E-13,0.3863599453712
441,GRAV,790.9935734335,-0.993626038538,5.106483207934E-13,0.1127266407701
442,GRAV,787.468052128,0.4599881551802,6.18276457593E-13,0.8879250515071
443,GRAV,725.0197609406,0.7485025218327,6.757735800334E-13,-0.6631319437412
444,GRAV,724.3363422388,0.7382006678013,6.8611032753E-13,0.674581184186
445,GRAV,634.4679833745,0.9999861711484,7.880288370993E-13,0.005259040977977
446,GRAV,8886.323223624,-0.9971821357359,-1.592333486247E-14,0.07501858549195
447,GRAV,638.8438594317,0.9685102006629,7.828570741694E-13,0.2489738765652
448,GRAV,624.4094642954,0.995165394648,8.000228478371E-13,0.09821322362601
449,GRAV,1013.853865581,-0.8318256056113,3.895248283037E-13,-0.5550370815084
450,GRAV,1010.399248633,-0.8917281461245,3.877857646147E-13,-0.4525714456407
451,GRAV,783.2956197884,0.8522420333434,6.370618206437E-13,-0.5231477005614
452,GRAV,630.6436274384,-0.4081827082448,6.893301275725E-13,-0.9129002556085
453,GRAV,630.6436274384,-0.4081827082448,6.893301275725E-13,-0.9129002556084
454,GRAV,630.6435366473,-0.5865018994738,6.906375110056E-13,0.8099478513544
455,GRAV,644.2695008999,0.9427534451103,7.705346425946E-13,-0.3334905421936
456,GRAV,1001.044434407,-0.896888391572,3.986449257171E-13,0.4422569536631
457,GRAV,710.7820603428,0.9850549301475,7.110238418484E-13,0.1722404847649
458,GRAV,641.1865159038,0.9368409875549,7.788750507928E-13,0.3497555775642
459,GRAV,8519.948373258,-0.9970235763388,-1.488989696933E-14,-0.07709726470263
460,GRAV,631.8326017157,-0.08563726355341,7.09281164189E-13,-0.9963263818102
461,GRAV,631.8326017157,-0.0856372635534,7.09281164189E-13,-0.9963263818102
462,GRAV,1009.635594829,0.9955312073824,5.209201698504E-13,0.09443312516135
463,GRAV,1005.139454729,0.5533829331521,4.85593418114E-13,-0.8329269651632
464,GRAV,1001.045357181,0.4547260077044,4.802828527242E-13,-0.8906313816149
465,GRAV,644.7482442906,0.9403809710253,7.697948911784E-13,-0.3401229620792
466,GRAV,930.5816574824,0.7974002319801,5.498323645717E-13,0.6034508016716
467,GRAV,925.6541160027,0.8674223183166,5.563870059162E-13,0.4975726295589
468,GRAV,925.6541160027,0.8674223183167,5.563870059162E-13,0.4975726295589
469,GRAV,935.6801155542,0.9232001777235,5.540140508017E-13,0.3843194398562
470,GRAV,8873.460607768,-0.9984871172484,-1.609409705566E-14,0.05498614997501
471,GRAV,641.68056267,0.9343429662287,7.782081630273E-13,0.3563751134114
472,GRAV,9813.484017315,-0.9930148361875,-2.200248316213E-14,-0.117989555095
473,GRAV,10871.97660682,-0.9967674499202,-2.649548969801E-14,-0.08034084129236
474,GRAV,8959.682939284,-0.9992169966343,-1.737733682542E-14,-0.03956505575837
475,GRAV,629.097090896,0.4000233545947,7.604319083001E-13,0.9165049458562
476,GRAV,1134.15069581,-0.7021569954919,3.493455120215E-13,-0.7120221581396
477,GRAV,629.097090896,0.4000233545947,7.604319083001E-13,0.9165049458562
478,GRAV,8724.97893715,-0.9952811966135,-1.467153251836E-14,0.09703267319607
479,GRAV,628.8888111399,0.4137669822446,7.473452618051E-13,-0.9103828229949
480,GRAV,628.8888111399,0.4137669822446,7.473452618051E-13,-0.9103828229949
481,GRAV,1013.854062509,-0.5433781074731,4.069471499053E-13,-0.8394880775324
482,GRAV,1013.854158969,-0.4553278820735,4.264484426656E-13,0.8903238286188
483,GRAV,709.85236304,0.9917904072576,7.119777578393E-13,0.1278741102483
484,GRAV,716.1734658289,-0.5360074988873,5.946666221861E-13,-0.8442132201858
485,GRAV,716.1734658289,-0.5360074988874,5.946666221862E-13,-0.8442132201858
486,GRAV,716.1735516619,-0.463104842882,6.131418385633E-13,0.8863035058597
487,GRAV,1011.264087285,-0.06823858001205,4.548010420056E-13,0.9976690313916
488,GRAV,1010.399556978,-0.440086755962,4.150650487184E-13,-0.897955259034
489,GRAV,1010.399508999,-0.557607688601,4.205533846978E-13,0.8301046112467
490,GRAV,1004.428957134,0.04758153411906,4.657712527428E-13,0.9988673573658
491,GRAV,1119.863293639,0.2655509536411,4.184161365038E-13,-0.9640968265793
492,GRAV,1005.139028372,-0.04885006616725,4.432866338496E-13,-0.9988061228464
493,GRAV,1005.138503053,-0.8405658510151,4.013984788222E-13,0.5417093779023
494,GRAV,1004.845161297,0.5401153588808,4.978964275478E-13,0.8415909927637
495,GRAV,1001.045081582,0.06543946649083,4.529355284087E-13,-0.9978565409043
496,GRAV,1001.273486049,0.4404564969197,4.931697407561E-13,0.897773955025
497,GRAV,8443.190663571,-0.9953759312194,-1.443834480276E-14,-0.09605600214987
498,GRAV,1136.177925415,0.9995061633361,4.703140671808E-13,0.03142339022407
499,GRAV,1127.641217384,0.9632056090958,4.727383330317E-13,0.2687656127676
500,GRAV,1127.641019811,0.7096753471533,4.478742697308E-13,-0.7045288508236
501,GRAV,792.025251927,0.9217543647275,6.364255188423E-13,-0.387774278551
502,GRAV,636.0822351613,0.7823624017719,7.762032808641E-13,0.6228234680017
503,GRAV,797.3899041165,0.9816947042276,6.411421120517E-13,0.1904613023465
504,GRAV,10358.99851402,-0.9993206258043,-2.424944896607E-14,-0.03685494325135
505,GRAV,9622.605160566,-0.9998242088002,-2.076816022992E-14,-0.01874970658427
506,GRAV,9940.499661203,-0.9987737192194,-2.245471189595E-14,-0.04950815889012
507,GRAV,10605.14820007,-0.9991037472239,-2.530080052414E-14,-0.0423285043816
508,GRAV,9377.915623958,-0.9999270134696,-1.948461468381E-14,-0.01208171071278
509,GRAV,9771.311833497,-0.9976491746696,-2.173104728771E-14,-0.06852827358931
510,GRAV,10019.14708578,-0.9972928363465,-2.290210642542E-14,-0.07353229611503
511,GRAV,10434.49208278,-0.998196614894,-2.467283703119E-14,-0.06002930962653
512,GRAV,9447.72626134,-0.9992822292598,-2.000201785056E-14,-0.037881740793
513,GRAV,636.4587327849,0.7914568221079,7.667632671194E-13,-0.61122508026
514,GRAV,10904.03762729,-0.9936080038321,-2.665794321598E-14,-0.112885493846
515,GRAV,11228.49603541,-0.9969524224828,-2.782381966941E-14,-0.07801196898966
516,GRAV,8964.262984065,-0.992535173593,-1.56872897328E-14,0.1219587191665
517,GRAV,8796.791250079,-0.9971574829724,-1.657246526479E-14,-0.07534556491334
518,GRAV,10029.61480378,-0.9892202329934,-2.296911847298E-14,-0.1464354145571
519,GRAV,9528.044204032,-0.9901437098062,-2.058491121565E-14,-0.1400551103358
520,GRAV,727.7813291976,0.9699118336768,6.917375705359E-13,-0.2434564332559
521,GRAV,792.025251927,0.9217543647276,6.364255188423E-13,-0.3877742785509
522,GRAV,710.6782302328,0.05668762802613,6.387566896073E-13,-0.9983919635237
523,GRAV,710.6782302329,0.05668762802613,6.387566896073E-13,-0.9983919635237
524,GRAV,8708.210722551,-0.9970545138285,-1.485026628014E-14,0.07669613063417
525,GRAV,719.5495913919,0.877710596363,6.907979226315E-13,-0.4791910986571
526,GRAV,993.5239297602,0.8490662791323,5.134204222537E-13,-0.5282863367914
527,GRAV,1138.598791604,-0.8629490192361,3.384363397536E-13,-0.5052909955653
528,GRAV,639.8279670669,0.9874456032926,7.823363305199E-13,0.1579594268732
529,GRAV,9957.9475266,-0.9942145499048,-2.267681695215E-14,-0.1074124236651
530,GRAV,9708.550126741,-0.9946545841806,-2.149608512308E-14,-0.1032582111434
531,GRAV,10860.32338388,-0.9979517813216,-2.640325690056E-14,-0.0639706351147
532,GRAV,9045.326898039,-0.9997547028907,-1.776064983848E-14,-0.02214800324879
533,GRAV,10693.74025693,-0.9966681609256,-2.579805430301E-14,-0.08156333120506
534,GRAV,9117.684396354,-0.9988086346325,-1.830502058546E-14,-0.04879868219169
535,GRAV,711.3699831885,0.527802019944,6.846404774373E-13,0.8493674279975
536,GRAV,711.3699831885,0.527802019944,6.846404774373E-13,0.8493674279975
537,GRAV,11200.21643461,-0.9999963561764,-2.734041807043E-14,-0.002699561820072
538,GRAV,711.4498726649,0.5411492728206,6.722807132555E-13,-0.8409265512075
539,GRAV,711.4498726649,0.5411492728205,6.722807132555E-13,-0.8409265512075
540,GRAV,716.40016747,0.8688396521869,7.005908847713E-13,0.4950935858883
541,GRAV,1132.671891955,-0.8698454961686,3.478622424098E-13,0.4933242471186
542,GRAV,1134.151036039,-0.2655497858334,3.921641733753E-13,0.9640971482396
543,GRAV,1127.640341217,-0.2488442305094,3.805383409267E-13,-0.9685435193847
544,GRAV,1127.640047593,-0.7143604441724,3.618619776946E-13,0.6997779332058
545,GRAV,1120.491163941,0.2509569613095,4.322781653069E-13,0.9679982456442
546,GRAV,9281.313213549,-0.996873685016,-1.805856167018E-14,0.0790117467382
547,GRAV,1132.67283087,0.5054109965263,4.309282519639E-13,-0.8628787426923
548,GRAV,1132.6475064,0.492316188336,4.435778480263E-13,0.8704164352207
549,GRAV,9750.504136099,-0.9856614150793,-2.159727690721E-14,-0.1687352210531
550,GRAV,11259.54192919,-0.9939820870429,-2.797987009944E-14,-0.1095427342995
551,GRAV,1127.01810047,0.6990878123232,4.584600851533E-13,0.7150358247397
552,GRAV,719.5495913919,0.8777105963629,6.907979226314E-13,-0.4791910986571
553,GRAV,1240.757740633,0.9805648614164,4.364269729929E-13,0.1961951899397
554,GRAV,636.0822351613,0.782362401772,7.762032808641E-13,0.6228234680017
555,GRAV,999.6067944074,0.9064193566513,5.153554644366E-13,-0.4223789174281
556,GRAV,999.6067944074,0.9064193566513,5.153554644367E-13,-0.4223789174281
557,GRAV,636.4587327849,0.7914568221079,7.667632671193E-13,-0.6112250802601
558,GRAV,8708.210722551,-0.9970545138285,-1.485026628014E-14,0.07669613063417
559,GRAV,11217.21319582,-0.9980663464803,-2.773498261659E-14,-0.06215760631972
560,GRAV,8957.666363317,-0.9964582609665,-1.752560135065E-14,-0.08408884677357
561,GRAV,8719.700369987,-0.9956013652639,-1.615067674717E-14,-0.09369056240967
562,GRAV,10726.33403921,-0.9934071658522,-2.596400247677E-14,-0.1146394471094
563,GRAV,10171.00897142,-0.9907472322166,-2.362252828295E-14,-0.1357200127289
564,GRAV,9419.931175934,-0.9921358793663,-2.005415364123E-14,-0.1251654779645
565,GRAV,716.40016747,0.8688396521869,7.005908847714E-13,0.4950935858883
566,GRAV,1244.141805817,-0.7519680999476,3.107623329534E-13,-0.6591994968605
567,GRAV,727.8297257085,0.9683657964252,6.915430982035E-13,-0.2495349360586
568,GRAV,1241.030237703,-0.7621940700364,3.211869975116E-13,0.6473485920286
569,GRAV,9498.505919927,-0.9994715038788,-1.972381484735E-14,0.03250712128639
570,GRAV,9740.166494314,-0.9996921952926,-2.099199285189E-14,0.02480956813627
571,GRAV,10711.93174018,-0.9999968633418,-2.548003902379E-14,-0.002504656962808
572,GRAV,10468.29324552,-0.9999925934602,-2.443776644637E-14,0.003848769261256
573,GRAV,10513.34828924,-0.990148436932,-2.507760272508E-14,-0.1400216870387
574,GRAV,9078.330355427,-0.9928009842897,-1.823288159794E-14,-0.1197756469129
575,GRAV,8843.611813513,-0.9914931188543,-1.68895580131E-14,-0.1301591151802
576,GRAV,1124.828309527,0.9731077580113,4.705288413726E-13,-0.2303503663947
577,GRAV,1124.828309528,0.9731077580113,4.705288413726E-13,-0.2303503663947
578,GRAV,717.8422612612,0.9989566251306,7.046622223366E-13,0.04566903883101
579,GRAV,1236.659148976,0.9870141511211,4.353003419423E-13,-0.1606333262018
580,GRAV,8547.241496272,-0.9950678845356,-1.355152535663E-14,0.09919629612981
581,GRAV,9318.848438927,-0.993125953603,-1.770457974698E-14,0.1170505885512
582,GRAV,1237.017463423,0.3351971360313,3.847032802763E-13,-0.9421480138473
583,GRAV,11444.81964147,-0.9999957216612,-2.816803039353E-14,0.002925176789105
584,GRAV,11138.52467496,-0.9998148004822,-2.693086308095E-14,0.01924486260521
585,GRAV,1237.283125312,0.3215095562964,3.984402699966E-13,0.9469063339159
586,GRAV,10354.80937554,-0.9884055609729,-2.201512667364E-14,0.15183690934
587,GRAV,11576.798233,-0.9987163896907,-2.816326370575E-14,0.05065148530002
588,GRAV,1138.599069162,-0.50676566135,3.73367724076E-13,0.8620838500265
589,GRAV,1138.599044037,-0.4932027538927,3.607691559319E-13,-0.8699143886341
590,GRAV,1135.805741989,-0.009081826743872,4.093228498732E-13,0.9999587593611
591,GRAV,1132.672478505,0.007692359346385,3.959635534826E-13,-0.9999704133662
592,GRAV,9267.660094142,-0.9982077614305,-1.822656433084E-14,0.05984367151025
593,GRAV,11406.7776536,-0.997038658191,-2.845679218425E-14,-0.07690197704033
594,GRAV,8787.057382295,-0.9922120654298,-1.461744617697E-14,0.1245600947957
595,GRAV,10924.4197319,-0.9916400740462,-2.672816121259E-14,-0.1290347377481
596,GRAV,10140.67821556,-0.9870916929637,-2.343005098105E-14,-0.1601561415684
597,GRAV,9387.173937578,-0.9884478547886,-1.983988033142E-14,-0.1515613353192
598,GRAV,639.2079226741,-0.2655493365785,7.03993906939E-13,0.9640972719818
599,GRAV,639.2075824452,-0.7021567591873,6.611754878189E-13,-0.7120223911701
600,GRAV,639.2075824451,-0.7021567591873,6.611754878189E-13,-0.7120223911701
601,GRAV,639.207922674,-0.2655493365785,7.03993906939E-13,0.9640972719818
602,GRAV,1241.031207242,0.6579184406785,4.069623832743E-13,-0.7530891882208
603,GRAV,1240.759003247,0.6470015646639,4.181322403189E-13,0.7624886722585
604,GRAV,637.7319770732,0.9955611220896,7.832671496345E-13,-0.0941172257541
605,GRAV,11450.40038547,-0.9992108860166,-2.846697005104E-14,-0.03971907936852
606,GRAV,10715.37198649,-0.9880432226559,-2.586383937439E-14,-0.1541771389139
607,GRAV,10484.00798482,-0.9865173348594,-2.489326911668E-14,-0.1636567994981
608,GRAV,9044.335974369,-0.9891113707239,-1.800638359949E-14,-0.1471689379748
609,GRAV,635.5588678152,0.6924907869334,7.714441778366E-13,0.7214267183937
610,GRAV,10254.06259454,-0.9915710301332,-2.197120394834E-14,0.1295642396673
611,GRAV,11329.40583206,-0.998935270706,-2.735191927891E-14,0.04613377222371
612,GRAV,11630.67501044,-0.9995681181392,-2.857004757354E-14,0.02938668405365
613,GRAV,10585.97961431,-0.9898407119788,-2.315148737736E-14,0.1421807473229
614,GRAV,635.9517169464,-0.9648782552006,6.50450499905E-13,-0.2626974545767
615,GRAV,635.9519123703,-0.7140953126191,6.750449663999E-13,0.700048487246
616,GRAV,635.9517169464,-0.9648782552006,6.50450499905E-13,-0.2626974545767
617,GRAV,635.9519123704,-0.7140953126191,6.750449663999E-13,0.700048487246
618,GRAV,635.9522055468,-0.2492103185475,6.936767407313E-13,-0.9684493880061
619,GRAV,635.9522055469,-0.2492103185475,6.936767407313E-13,-0.9684493880061
620,GRAV,633.5446539459,0.9810903708837,7.862390449526E-13,-0.1935502109515
621,GRAV,635.5588678151,0.6924907869334,7.714441778367E-13,0.7214267183937
622,GRAV,635.8652756233,0.7030997695159,7.606362667115E-13,-0.7110912136334
623,GRAV,635.8652756234,0.7030997695159,7.606362667114E-13,-0.7110912136335
624,GRAV,632.063376751,-0.9677075883704,6.586950978705E-13,0.2520754319849
625,GRAV,632.063376751,-0.9677075883704,6.586950978706E-13,0.2520754319849
626,GRAV,1237.017363806,0.1944886468592,3.748185133343E-13,-0.9809047692018
627,GRAV,1237.37751838,0.1802906491395,3.890817208149E-13,0.9836133802632
628,GRAV,1244.142130896,-0.3348013042406,3.516744659404E-13,0.9422887490991
629,GRAV,1244.142229942,-0.1948985610465,3.615026283007E-13,0.9808234045444
630,GRAV,1244.141876358,-0.6486446141706,3.170031151078E-13,-0.761091429795
631,GRAV,632.0567303171,0.2630532038408,7.330168368784E-13,-0.9647813285657
632,GRAV,632.0567303171,0.2630532038408,7.330168368783E-13,-0.9647813285658
633,GRAV,1241.030614367,-0.1795223733022,3.481321916559E-13,-0.9837538907084
634,GRAV,1240.756599175,-0.660192193481,3.290244579016E-13,0.7510967099294
635,GRAV,1240.756803902,-0.3203718187112,3.389062691467E-13,-0.9472918757045
636,GRAV,639.2087646436,0.9677077441733,7.784824477943E-13,-0.2520748338631
637,GRAV,632.3723126772,0.2485781027557,7.467650142083E-13,0.9686118556111
638,GRAV,632.3723126772,0.2485781027557,7.467650142083E-13,0.9686118556111
639,GRAV,1244.143005918,0.9468675079028,4.290877921414E-13,-0.3216238835626
640,GRAV,1244.143005918,0.9468675079028,4.290877921414E-13,-0.3216238835626
641,GRAV,1240.757568928,0.7602334311321,4.148187545002E-13,-0.6496500059178
642,GRAV,1241.0314284,0.9417172923789,4.347949421857E-13,0.3364053228393
643,GRAV,1241.0314284,0.9417172923789,4.347949421857E-13,0.3364053228393
644,GRAV,1240.406259316,0.7508201703262,4.245107424359E-13,0.6605066781126
645,GRAV,9612.894417834,-0.9836053741244,-2.087725014569E-14,-0.1803343228384
646,GRAV,9864.710460399,-0.9831993628229,-2.207966828762E-14,-0.1825349636226
647,GRAV,11437.33962408,-0.9941564491683,-2.860990262118E-14,-0.1079488516709
648,GRAV,8989.044485356,-0.9899375846037,-1.549826069322E-14,0.1415046945829
649,GRAV,11279.28164187,-0.9921320056126,-2.804708371131E-14,-0.1251961798104
650,GRAV,9685.667660562,-0.9987390613422,-2.04649793401E-14,0.0502024635779
651,GRAV,10650.41086284,-0.9997909451773,-2.504052898412E-14,0.02044666088888
652,GRAV,10166.91497142,-0.9994004586444,-2.286381423367E-14,0.03462258311277
653,GRAV,10721.72311016,-0.9937764814568,-2.420614341228E-14,0.1113925711318
654,GRAV,10394.14170334,-0.9951946369696,-2.306534788728E-14,0.09791646718959
655,GRAV,10630.46759632,-0.9959934887111,-2.416292843034E-14,0.08942578176981
656,GRAV,11636.1666173,-0.9985109693353,-2.917191753926E-14,-0.05455129803303
657,GRAV,635.9530820258,0.963307288013,7.859043305632E-13,0.2684009479511
658,GRAV,1009.899320752,0.9996995667123,5.201572683125E-13,-0.02451073877362
659,GRAV,1009.899320752,0.9996995667123,5.201572683126E-13,-0.02451073877358
660,GRAV,1138.600008472,0.8690693599015,4.564686757515E-13,-0.4946902542808
661,GRAV,1138.600008472,0.8690693599015,4.564686757516E-13,-0.4946902542808
662,GRAV,1135.502974581,0.8606940468804,4.648294856314E-13,0.5091225369835
663,GRAV,1135.502974581,0.8606940468805,4.648294856314E-13,0.5091225369835
664,GRAV,9459.390410619,-0.9970007007086,-1.900627964121E-14,0.07739252409955
665,GRAV,633.7604164617,0.9824578103307,7.861418854373E-13,-0.1864849884579
666,GRAV,9342.689448971,-0.9907250970561,-1.751913732934E-14,0.1358815000771
667,GRAV,11692.50202563,-0.999440474113,-2.925957436683E-14,-0.03344755155228
668,GRAV,9873.014566482,-0.9871831568249,-1.971882830026E-14,0.1595913997719
669,GRAV,9621.415864982,-0.9875759209249,-1.855494594973E-14,0.1571426116921
670,GRAV,639.150375626,0.9694832497004,7.787226414805E-13,-0.2451575586236
671,GRAV,800.7632941784,0.9994640625894,6.381965889927E-13,-0.03273511252857
672,GRAV,800.7632941784,0.9994640625894,6.381965889927E-13,-0.03273511252861
673,GRAV,1240.757568928,0.7602334311322,4.148187545002E-13,-0.6496500059178
674,GRAV,1240.406259316,0.7508201703261,4.245107424359E-13,0.6605066781127
675,GRAV,635.8812725643,0.9652090000142,7.860609063069E-13,0.2614796097053
676,GRAV,10114.71575131,-0.9982589660698,-2.236404303801E-14,0.05898335918916
677,GRAV,10354.33474971,-0.998691694521,-2.349978802069E-14,0.05113608603312
678,GRAV,9770.569344066,-0.9906642680263,-1.965248213901E-14,0.1363242753727
679,GRAV,11365.79826267,-0.9960364228191,-2.694934481342E-14,0.08894630075295
680,GRAV,9496.221785541,-0.9933963652196,-1.865657223162E-14,0.1147330012183
681,GRAV,1249.484101497,-0.9651648143682,2.977778834734E-13,-0.2616426591854
682,GRAV,5785.522231449,-0.9992684222182,1.119512533025E-14,0.0382442199223
683,GRAV,6952.323889906,-0.9990051577901,-2.683201079955E-15,-0.044594783425
684,GRAV,4612.634456754,-0.9999288480597,3.101898453552E-14,0.01192890682476
685,GRAV,11206.73131821,-0.9943375488933,-2.612802252135E-14,0.1062677696238
686,GRAV,11116.583806,-0.9963631079181,-2.609986969163E-14,0.08520890317254
687,GRAV,1125.043742541,-0.9974571499053,3.386109544056E-13,0.07126874562338
688,GRAV,1245.592351223,-0.9683481241943,3.026946712111E-13,0.2496035063243
689,GRAV,8330.329805869,-0.9983473690352,-1.360652004461E-14,-0.05746764951292
690,GRAV,8330.329805869,-0.9983473690352,-1.360652004461E-14,-0.05746764951292
691,GRAV,1249.484101497,-0.9651648143682,2.977778834734E-13,-0.2616426591854
692,GRAV,1142.546048645,-0.9421625894031,3.329843257941E-13,-0.3351561652862
693,GRAV,1245.592351223,-0.9683481241943,3.026946712111E-13,0.2496035063242
694,GRAV,1135.078248752,-0.9455143304006,3.405447103856E-13,0.3255804831482
695,GRAV,8418.417655068,-0.9991932207433,-1.347562540333E-14,0.04016102116132
696,GRAV,8418.417655068,-0.9991932207433,-1.347562540333E-14,0.04016102116132
697,GRAV,1261.736047969,-0.9177952926499,2.963969275347E-13,-0.3970539016176
698,GRAV,1258.152195305,-0.9225093481055,3.032203853925E-13,0.3859747435493
699,GRAV,1884.161798923,-0.9950377281547,1.738750113747E-13,-0.09949833942718
700,GRAV,1876.074131361,-0.9999756723915,1.753061264929E-13,-0.006975286751162
701,GRAV,1245.162790071,-0.9986116722842,2.984002532354E-13,-0.05267568678055
702,GRAV,1124.256443207,-0.9888457845779,3.400881135432E-13,0.1489429901757
703,GRAV,1264.008110073,-0.944831750658,2.944476470902E-13,-0.3275560455074
704,GRAV,8646.101790934,-0.9997983872175,-1.541590498743E-14,-0.02007946506349
705,GRAV,2407.661015486,-0.9968439426754,1.21200884897E-13,-0.07938610679112
706,GRAV,2407.661017674,-0.9978543955488,1.222630233134E-13,0.06547217182788
707,GRAV,1260.254629895,-0.9487767853817,3.002792259113E-13,0.3159471657108
708,GRAV,8734.820919692,-0.9999975196646,-1.582664835575E-14,-0.002227254969433
709,GRAV,8629.063717387,-0.9992568113706,-1.481700827662E-14,0.03854639969517
710,GRAV,8460.717108341,-0.9981630745042,-1.351727269308E-14,0.060584459198
711,GRAV,8460.717108341,-0.9981630745042,-1.351727269308E-14,0.060584459198
712,GRAV,2931.79124414,-0.9986199934104,8.819519706279E-14,0.052517699503
713,GRAV,2926.600135058,-0.9999756723713,8.791473378235E-14,-0.006975289641547
714,GRAV,8490.611542459,-0.9999520244557,-1.437864761897E-14,-0.009795345166685
715,GRAV,8490.611542459,-0.9999520244557,-1.437864761897E-14,-0.00979534516668
716,GRAV,1241.180620426,-0.9924027014253,2.994506750238E-13,-0.1230320210505
717,GRAV,1233.158004647,-0.9998454464951,3.024357040789E-13,0.01758076002501
718,GRAV,8452.887686594,-0.9982524094854,-1.440771958832E-14,-0.05909422100857
719,GRAV,8373.228878946,-0.996948129906,-1.395296626467E-14,-0.07806680649825
720,GRAV,8373.228878946,-0.996948129906,-1.395296626467E-14,-0.07806680649824
721,GRAV,8490.611542459,-0.9999520244557,-1.437864761897E-14,-0.009795345166684
722,GRAV,8394.066331109,-0.9991000340393,-1.329427723609E-14,0.04241605807664
723,GRAV,8590.556532948,-0.9998305827294,-1.477605443945E-14,0.01840667919394
724,GRAV,8345.040150361,-0.9999360027391,-1.327436432806E-14,0.0113132853844
725,GRAV,8345.040150361,-0.9999360027391,-1.327436432806E-14,0.0113132853844
726,GRAV,8413.266494713,-0.9992555778756,-1.406139398792E-14,-0.03857836290681
727,GRAV,8306.043008772,-0.9982131041592,-1.345491011719E-14,-0.0597544867346
728,GRAV,8256.169449889,-0.9995978277264,-1.297190946424E-14,-0.02835811708735
729,GRAV,8256.169449889,-0.9995978277264,-1.297190946424E-14,-0.02835811708735
730,GRAV,8256.169449889,-0.9995978277264,-1.297190946424E-14,-0.02835811708735
731,GRAV,8266.338507863,-0.9992439748205,-1.309799754958E-14,-0.03887774150931
732,GRAV,634.7326087738,-0.1032939175477,7.203200879442E-13,0.994650876739
733,GRAV,713.6539308007,0.03805468593129,6.504043470174E-13,0.9992756581037
734,GRAV,713.6539308006,0.0380546859313,6.504043470174E-13,0.9992756581037
735,GRAV,634.7326087738,-0.1032939175477,7.203200879443E-13,0.994650876739
736,GRAV,716.2716795103,-0.5500025276381,6.067374882803E-13,0.8351629898359
737,GRAV,634.1690892147,-0.4227629016496,6.985135097112E-13,0.906240326287
738,GRAV,710.5581204807,-0.507209478196,6.14987311658E-13,0.8618228038455
739,GRAV,803.7382147402,-0.4008663711544,5.481313516344E-13,0.9161365359364
740,GRAV,803.7380453625,-0.5929631203131,5.216105329412E-13,-0.8052296181516
741,GRAV,717.2204885013,-0.3400458580237,6.06329509089E-13,-0.9404088549354
742,GRAV,794.9105221016,-0.4658944252352,5.35953089719E-13,-0.8848403158394
743,GRAV,716.2714164688,-0.8875573649363,5.736331730897E-13,-0.4606972150419
744,GRAV,634.1687865506,-0.8111643756508,6.604226918059E-13,-0.5848182244724
745,GRAV,716.2714164688,-0.8875573649363,5.736331730898E-13,-0.4606972150419
746,GRAV,634.1687865506,-0.8111643756508,6.604226918059E-13,-0.5848182244723
747,GRAV,631.2745219816,-0.9952742993432,6.549946844351E-13,-0.0971033936939
748,GRAV,710.3441192871,-0.9989866599892,5.753139523285E-13,0.04500725678883
749,GRAV,710.3441192871,-0.9989866599892,5.753139523285E-13,0.04500725678888
750,GRAV,631.2745219816,-0.9952742993432,6.549946844351E-13,-0.09710339369386
751,GRAV,710.344201107,-0.8939891467719,5.856111535085E-13,0.4480886133947
752,GRAV,631.2746574609,-0.821416942446,6.720449997203E-13,0.5703281569962
753,GRAV,710.344201107,-0.8939891467719,5.856111535085E-13,0.4480886133947
754,GRAV,631.2746574609,-0.821416942446,6.720449997203E-13,0.5703281569962
755,GRAV,716.1327638909,0.9959436674555,7.063218526506E-13,0.08997894895676
756,GRAV,634.4679833745,0.9999861711484,7.880288370993E-13,0.00525904097799
757,GRAV,637.7319770732,0.9955611220896,7.832671496345E-13,-0.09411722575409
758,GRAV,727.9376294478,0.9865433330033,6.93359660667E-13,-0.1635000064427
759,GRAV,637.0919643662,0.994868694974,7.838843852792E-13,-0.1011745015344
760,GRAV,727.613339811,0.985501040759,6.935201638996E-13,-0.1696693804517
761,GRAV,6941.743590771,-0.9994848460708,-2.518140269287E-15,-0.03209427479903
762,GRAV,5785.522230083,-0.9986376677673,1.053210752116E-14,-0.05218053771574
763,GRAV,5771.757354666,-0.9999756723535,1.098219692129E-14,-0.006975292186008
764,GRAV,4612.634456182,-0.9996651344427,3.074178183122E-14,-0.02587699711626
765,GRAV,6952.323891043,-0.9995300533767,-2.131456893137E-15,0.03065407634714
766,GRAV,6941.74359153,-0.9998353098101,-2.149750181984E-15,0.01814809237721
767,GRAV,8354.935095299,-0.9997638893444,-1.324614328628E-14,0.02172937097447
768,GRAV,8345.040150361,-0.9999360027391,-1.327436432806E-14,0.0113132853844
769,GRAV,1125.043742541,-0.9974571499053,3.386109544056E-13,0.07126874562342
770,GRAV,998.9435528142,-0.9902948526674,3.908758013198E-13,0.1389823901811
771,GRAV,992.983117729,-0.9997037815204,3.920845409934E-13,0.02433822536343
772,GRAV,1120.557852053,-0.9940942779921,3.390615537607E-13,-0.1085198897128
773,GRAV,1245.162790071,-0.9986116722842,2.984002532354E-13,-0.05267568678051

***********************************************************
** MbDAssembly gravity
*DLOAD
Eall,GRAV,9810,0.9999939179203,-1.235990476633E-17,-0.003487710207621

***********************************************************
** Outputs --> frd file
*NODE FILE
U
*EL FILE
S, E
*OUTPUT, FREQUENCY=1
***********************************************************
*END STEP

***********************************************************
** CalculiX Input file
**   written by    --> FreeCAD 26.3.0
**   written on    --> Wed Sep 23 14:42:45 2026
**   file name     --> RealisticPendulum.FCStd
**   analysis name --> FEMPart002
**
**
***********************************************************
**  About units:
**  See ccx manual, ccx does not know about any unit.
**  Golden rule: The user must make sure that the numbers they provide have consistent units.
**  The user is the FreeCAD calculix writer module ;-)
**
**  The unit system which is used at Guido Dhondt's company: mm, N, s, K
**  Since Length and Mass are connected by Force, if Length is mm the Mass is in t to get N
**  The following units are used to write to inp file:
**
**  Length: mm (this includes the mesh geometry)
**  Mass: t
**  TimeSpan: s
**  Temperature: K
**
**  This leads to:
**  Force: N
**  Pressure: N/mm^2 == MPa (Young's Modulus has unit Pressure)
**  Density: t/mm^3
**  Gravity: mm/s^2
**  Thermal conductivity: t*mm/K/s^3 == as W/m/K == kW/mm/K
**  Specific Heat: mm^2/s^2/K = J/kg/K == kJ/t/K
**
