** written by FreeCAD inp file writer for CalculiX,Abaqus meshes
** highest dimension mesh elements only.

** Nodes
*Node, NSET=Nall
1, -5e-15, 5, 212
2, -5e-15, -5, 212
3, -2e-15, 5, 200
4, -2e-15, -5, 200
5, -5, -3, 180
6, -5, -3, 48
7, -5, 3, 180
8, -5, 3, 48
9, 5, -3, 180
10, 5, -3, 48
11, 5, 3, 180
12, 5, 3, 48
13, -7e-15, 5, 76
14, -7e-15, -5, 76
15, 10, 5, 209.3205080757
16, 17.32050807569, 5, 202
17, 20, 5, 192
18, 17.32050807569, 5, 182
19, 10, 5, 174.6794919243
20, -1.130139009627e-13, 5, 172
21, -10, 5, 174.6794919243
22, -17.32050807569, 5, 182
23, -20, 5, 192
24, -17.32050807569, 5, 202
25, -10, 5, 209.3205080757
26, 5.17638090205, 5, 211.3185165258
27, 14.14213562373, 5, 206.1421356237
28, 19.31851652578, 5, 197.1763809021
29, 19.31851652578, 5, 186.8236190979
30, 14.14213562373, 5, 177.8578643763
31, 5.17638090205, 5, 172.6814834742
32, -5.176380902051, 5, 172.6814834742
33, -14.14213562373, 5, 177.8578643763
34, -19.31851652578, 5, 186.8236190979
35, -19.31851652578, 5, 197.1763809021
36, -14.14213562373, 5, 206.1421356237
37, -5.17638090205, 5, 211.3185165258
38, -4.9e-15, 0, 212
39, 10, -5, 209.3205080757
40, 17.32050807569, -5, 202
41, 20, -5, 192
42, 17.32050807569, -5, 182
43, 10, -5, 174.6794919243
44, -1.130139009627e-13, -5, 172
45, -10, -5, 174.6794919243
46, -17.32050807569, -5, 182
47, -20, -5, 192
48, -17.32050807569, -5, 202
49, -10, -5, 209.3205080757
50, 5.17638090205, -5, 211.3185165258
51, 14.14213562373, -5, 206.1421356237
52, 19.31851652578, -5, 197.1763809021
53, 19.31851652578, -5, 186.8236190979
54, 14.14213562373, -5, 177.8578643763
55, 5.17638090205, -5, 172.6814834742
56, -5.176380902051, -5, 172.6814834742
57, -14.14213562373, -5, 177.8578643763
58, -19.31851652578, -5, 186.8236190979
59, -19.31851652578, -5, 197.1763809021
60, -14.14213562373, -5, 206.1421356237
61, -5.17638090205, -5, 211.3185165258
62, 4, 5, 198.9282032303
63, 6.928203230276, 5, 196
64, 8, 5, 192
65, 6.928203230275, 5, 188
66, 4, 5, 185.0717967697
67, -4.520556038509e-14, 5, 184
68, -4, 5, 185.0717967697
69, -6.928203230276, 5, 188
70, -8, 5, 192
71, -6.928203230275, 5, 196
72, -4, 5, 198.9282032303
73, 2.07055236082, 5, 199.7274066103
74, 5.656854249492, 5, 197.6568542495
75, 7.727406610313, 5, 194.0705523608
76, 7.727406610313, 5, 189.9294476392
77, 5.656854249492, 5, 186.3431457505
78, 2.07055236082, 5, 184.2725933897
79, -2.07055236082, 5, 184.2725933897
80, -5.656854249492, 5, 186.3431457505
81, -7.727406610313, 5, 189.9294476392
82, -7.727406610313, 5, 194.0705523608
83, -5.656854249492, 5, 197.6568542495
84, -2.07055236082, 5, 199.7274066103
85, 4, -5, 198.9282032303
86, 6.928203230276, -5, 196
87, 8, -5, 192
88, 6.928203230275, -5, 188
89, 4, -5, 185.0717967697
90, -4.520556038509e-14, -5, 184
91, -4, -5, 185.0717967697
92, -6.928203230276, -5, 188
93, -8, -5, 192
94, -6.928203230275, -5, 196
95, -4, -5, 198.9282032303
96, 2.07055236082, -5, 199.7274066103
97, 5.656854249492, -5, 197.6568542495
98, 7.727406610313, -5, 194.0705523608
99, 7.727406610313, -5, 189.9294476392
100, 5.656854249492, -5, 186.3431457505
101, 2.07055236082, -5, 184.2725933897
102, -2.07055236082, -5, 184.2725933897
103, -5.656854249492, -5, 186.3431457505
104, -7.727406610313, -5, 189.9294476392
105, -7.727406610313, -5, 194.0705523608
106, -5.656854249492, -5, 197.6568542495
107, -2.07055236082, -5, 199.7274066103
108, -1.96e-15, -1.666666666667, 200
109, -1.96e-15, 1.666666666667, 200
110, -1.96e-15, -3.333333333333, 200
111, -1.96e-15, 8.881784197001e-16, 200
112, -1.96e-15, 3.333333333333, 200
113, -5, -3, 114
114, -5, 0, 180
115, -5, 3, 114
116, -5, 0, 48
117, 5, -3, 114
118, 5, 0, 180
119, 5, 3, 114
120, 5, 0, 48
121, 0, -3, 48
122, 0, -3, 180
123, 0, 3, 48
124, 0, 3, 180
125, 14, 5, 72.24871130596
126, 24.24871130596, 5, 62
127, 28, 5, 48
128, 24.24871130596, 5, 34
129, 14, 5, 23.75128869404
130, -1.706539592236e-13, 5, 20
131, -14, 5, 23.75128869404
132, -24.24871130596, 5, 34
133, -28, 5, 48
134, -24.24871130596, 5, 62
135, -14, 5, 72.24871130596
136, 7.246933262871, 5, 75.04592313609
137, 19.79898987322, 5, 67.79898987322
138, 27.04592313609, 5, 55.24693326287
139, 27.04592313609, 5, 40.75306673713
140, 19.79898987322, 5, 28.20101012678
141, 7.24693326287, 5, 20.95407686391
142, -7.246933262871, 5, 20.95407686391
143, -19.79898987322, 5, 28.20101012678
144, -27.04592313609, 5, 40.75306673713
145, -27.04592313609, 5, 55.24693326287
146, -19.79898987322, 5, 67.79898987322
147, -7.24693326287, 5, 75.04592313609
148, -6.86e-15, 0, 76
149, 14, -5, 72.24871130596
150, 24.24871130596, -5, 62
151, 28, -5, 48
152, 24.24871130596, -5, 34
153, 14, -5, 23.75128869404
154, -1.706539592236e-13, -5, 20
155, -14, -5, 23.75128869404
156, -24.24871130596, -5, 34
157, -28, -5, 48
158, -24.24871130596, -5, 62
159, -14, -5, 72.24871130596
160, 7.246933262871, -5, 75.04592313609
161, 19.79898987322, -5, 67.79898987322
162, 27.04592313609, -5, 55.24693326287
163, 27.04592313609, -5, 40.75306673713
164, 19.79898987322, -5, 28.20101012678
165, 7.24693326287, -5, 20.95407686391
166, -7.246933262871, -5, 20.95407686391
167, -19.79898987322, -5, 28.20101012678
168, -27.04592313609, -5, 40.75306673713
169, -27.04592313609, -5, 55.24693326287
170, -19.79898987322, -5, 67.79898987322
171, -7.24693326287, -5, 75.04592313609
172, 5.17638090205, 0, 211.3185165258
173, -5.17638090205, 0, 211.3185165258
174, 10, 0, 209.3205080757
175, -10, 0, 209.3205080757
176, 14.14213562373, 0, 206.1421356237
177, 19.31851652578, 0, 197.1763809021
178, 20, 0, 192
179, 17.32050807569, 0, 202
180, 19.31851652578, 0, 186.8236190979
181, 17.32050807569, 0, 182
182, 14.14213562373, 0, 177.8578643763
183, 10, 0, 174.6794919243
184, 5.17638090205, 0, 172.6814834742
185, -5.176380902051, 0, 172.6814834742
186, -1.130139009627e-13, 0, 172
187, -14.14213562373, 0, 177.8578643763
188, -17.32050807569, 0, 182
189, -10, 0, 174.6794919243
190, -19.31851652578, 0, 186.8236190979
191, -19.31851652578, 0, 197.1763809021
192, -17.32050807569, 0, 202
193, -20, 0, 192
194, -14.14213562373, 0, 206.1421356237
195, 3.416237101988, 5, 204.7495704353
196, 9.333333333333, 5, 182.6666666667
197, -3.472079033996, 5, 204.5411655079
198, -9.286798389993, 5, 201.0901942513
199, -12.74957043532, 5, 188.583762898
200, -12.38084668855, 5, 195.2789928582
201, -9.124928405887, 5, 182.7225085987
202, 3.26367410655, 5, 179.4029925601
203, 12.59700743988, 5, 188.7363258935
204, -3.31020904989, 5, 179.6461316421
205, 9.277491401325, 5, 201.1249284059
206, 12.35386835786, 5, 195.3102090499
207, 6.708118550994, 5, 207.0350392555
208, 1.708118550994, 5, 208.3747852177
209, -1.736039516998, 5, 208.2705827539
210, -6.736039516998, 5, 206.9308367918
211, -0.02792096600395, 5, 204.6453679716
212, 1.708118550994, 5, 202.3747852177
213, 3.708118550994, 5, 201.8388868328
214, -3.736039516998, 5, 201.7346843691
215, -1.736039516998, 5, 202.2705827539
216, 13.29899973851, 5, 201.5624642029
217, 9.638745700663, 5, 205.2227182408
218, 6.346864251657, 5, 202.9372494206
219, 16.17693417893, 5, 193.6551045249
220, 14.83718821678, 5, 198.6551045249
221, 10.81567987959, 5, 198.2175687279
222, 14.95875775779, 5, 185.3681629467
223, 16.29850371994, 5, 190.3681629467
224, 12.47543789887, 5, 192.0232674717
225, 9.666666666667, 5, 178.6730792955
226, 13.32692070451, 5, 182.3333333333
227, 10.96517038661, 5, 185.7014962801
228, 1.631837053275, 5, 175.7014962801
229, 6.631837053275, 5, 177.0412422422
230, 6.298503719941, 5, 181.0348296134
231, -6.655104524945, 5, 177.1628117832
232, -1.655104524945, 5, 175.8230658211
233, -0.02326747167005, 5, 179.5245621011
234, -13.22271824079, 5, 182.3612542993
235, -9.562464202944, 5, 178.7010002615
236, -6.217568727888, 5, 181.1843201204
237, -16.37478521766, 5, 190.291881449
238, -15.03503925551, 5, 185.291881449
239, -10.9372494206, 5, 185.6531357483
240, -14.85067738212, 5, 198.6394964291
241, -16.19042334427, 5, 193.6394964291
242, -12.56520856193, 5, 191.9313778781
243, -9.643399194997, 5, 205.2053511635
244, -13.30365323284, 5, 201.5450971257
245, -10.83382253927, 5, 198.1845935548
246, -6.379438711995, 5, 202.8156798796
247, 6.638745700663, 5, 200.0265658181
248, 8.1028473158, 5, 198.5624642029
249, 9.641035794069, 5, 195.6551045249
250, 10.17693417893, 5, 193.6551045249
251, 10.29850371994, 5, 190.3681629467
252, 9.762605335079, 5, 188.3681629467
253, 8.130768281804, 5, 185.3333333333
254, 6.666666666667, 5, 183.8692317182
255, 3.631837053275, 5, 182.2373946649
256, 1.631837053275, 5, 181.7014962801
257, -1.655104524945, 5, 181.8230658211
258, -3.655104524945, 5, 182.3589642059
259, -6.562464202943, 5, 183.8971526842
260, -8.026565818081, 5, 185.3612542993
261, -9.838886832798, 5, 188.291881449
262, -10.37478521766, 5, 190.291881449
263, -10.19042334427, 5, 193.6394964291
264, -9.654524959411, 5, 195.6394964291
265, -8.107500810134, 5, 198.5450971257
266, -6.643399194997, 5, 200.0091987408
267, 3.416237101988, -5, 204.7495704353
268, 9.333333333333, -5, 182.6666666667
269, -3.472079033996, -5, 204.5411655079
270, -9.286798389993, -5, 201.0901942513
271, -12.74957043532, -5, 188.583762898
272, -12.38084668855, -5, 195.2789928582
273, -9.124928405887, -5, 182.7225085987
274, 3.26367410655, -5, 179.4029925601
275, 12.59700743988, -5, 188.7363258935
276, -3.31020904989, -5, 179.6461316421
277, 9.277491401325, -5, 201.1249284059
278, 12.35386835786, -5, 195.3102090499
279, 1.708118550994, -5, 208.3747852177
280, 6.708118550994, -5, 207.0350392555
281, -6.736039516998, -5, 206.9308367918
282, -1.736039516998, -5, 208.2705827539
283, -0.02792096600395, -5, 204.6453679716
284, 3.708118550994, -5, 201.8388868328
285, 1.708118550994, -5, 202.3747852177
286, -1.736039516998, -5, 202.2705827539
287, -3.736039516998, -5, 201.7346843691
288, 9.638745700663, -5, 205.2227182408
289, 13.29899973851, -5, 201.5624642029
290, 6.346864251657, -5, 202.9372494206
291, 14.83718821678, -5, 198.6551045249
292, 16.17693417893, -5, 193.6551045249
293, 10.81567987959, -5, 198.2175687279
294, 16.29850371994, -5, 190.3681629467
295, 14.95875775779, -5, 185.3681629467
296, 12.47543789887, -5, 192.0232674717
297, 13.32692070451, -5, 182.3333333333
298, 9.666666666667, -5, 178.6730792955
299, 10.96517038661, -5, 185.7014962801
300, 6.631837053275, -5, 177.0412422422
301, 1.631837053275, -5, 175.7014962801
302, 6.298503719941, -5, 181.0348296134
303, -1.655104524945, -5, 175.8230658211
304, -6.655104524945, -5, 177.1628117832
305, -0.02326747167005, -5, 179.5245621011
306, -9.562464202944, -5, 178.7010002615
307, -13.22271824079, -5, 182.3612542993
308, -6.217568727888, -5, 181.1843201204
309, -15.03503925551, -5, 185.291881449
310, -16.37478521766, -5, 190.291881449
311, -10.9372494206, -5, 185.6531357483
312, -16.19042334427, -5, 193.6394964291
313, -14.85067738212, -5, 198.6394964291
314, -12.56520856193, -5, 191.9313778781
315, -13.30365323284, -5, 201.5450971257
316, -9.643399194997, -5, 205.2053511635
317, -10.83382253927, -5, 198.1845935548
318, -6.379438711995, -5, 202.8156798796
319, 8.1028473158, -5, 198.5624642029
320, 6.638745700663, -5, 200.0265658181
321, 10.17693417893, -5, 193.6551045249
322, 9.641035794069, -5, 195.6551045249
323, 9.762605335079, -5, 188.3681629467
324, 10.29850371994, -5, 190.3681629467
325, 6.666666666667, -5, 183.8692317182
326, 8.130768281804, -5, 185.3333333333
327, 1.631837053275, -5, 181.7014962801
328, 3.631837053275, -5, 182.2373946649
329, -3.655104524945, -5, 182.3589642059
330, -1.655104524945, -5, 181.8230658211
331, -8.026565818081, -5, 185.3612542993
332, -6.562464202943, -5, 183.8971526842
333, -10.37478521766, -5, 190.291881449
334, -9.838886832798, -5, 188.291881449
335, -9.654524959411, -5, 195.6394964291
336, -10.19042334427, -5, 193.6394964291
337, -6.643399194997, -5, 200.0091987408
338, -8.107500810134, -5, 198.5450971257
339, -7.751173309934, 0.0004090689846006, 193.9797253141
340, -5.900629000126, 0.008584387974766, 197.4020900958
341, 5.900629000126, 0.008584387974766, 197.4020900958
342, 7.751173309934, 0.0004090689846006, 193.9797253141
343, -7.727406610313, 0, 189.9294476392
344, -5.656854249492, 0, 186.3431457505
345, -2.07055236082, 3.333333333333, 199.7274066103
346, -3.330387815149, 0.3820363689807, 199.2738240975
347, 3.330387815149, 0.3820363689807, 199.2738240975
348, 2.07055236082, 3.333333333333, 199.7274066103
349, 1.816621978181, -2.083765626184, 199.7910130656
350, -1.816621978181, -2.083765626184, 199.7910130656
351, -2.07055236082, 0, 184.2725933897
352, 2.07055236082, 0, 184.2725933897
353, 5.656854249492, -8.881784197001e-16, 186.3431457505
354, 7.727406610313, 0, 189.9294476392
355, 1.04420953776, 4.166666666667, 199.931558891
356, 3.061467458921, 4.166666666667, 199.3910362601
357, -1.04420953776, 4.166666666667, 199.931558891
358, -3.061467458921, 4.166666666667, 199.3910362601
359, -1.04420953776, 2.5, 199.931558891
360, 1.04420953776, 2.5, 199.931558891
361, 0.914301775996, -3.541882813092, 199.9475815354
362, 2.940133162333, -3.541882813092, 199.440135549
363, -0.914301775996, -3.541882813092, 199.9475815354
364, -2.940133162333, -3.541882813092, 199.440135549
365, 0.914301775996, -1.875216146425, 199.9475815354
366, -0.914301775996, -1.875216146425, 199.9475815354
367, 5.008779190018, 2.504292193987, 198.237958883
368, 6.452611739297, 2.504292193987, 196.7290381413
369, 4.709433607583, 0.1953103784777, 198.4669339795
370, 3.669265570394, 2.69101818449, 199.1089021778
371, 2.709976562646, 1.857684851157, 199.5270197974
372, 7.408873150076, 2.500204534492, 195.018045501
373, 7.937549574002, 2.500204534492, 192.9976506203
374, 7.037120984672, 0.004496728479683, 195.8051186903
375, 7.93155889099, 2.5, 190.9557904622
376, 7.39103626009, 2.5, 188.9385325411
377, 7.999862273683, 0.0002045344923003, 191.9530574595
378, 6.34682672233, 2.5, 187.1299085679
379, 4.87009143207, 2.5, 185.6531732777
380, 6.928203230275, 0, 188
381, 3.061467458921, 2.5, 184.6089637399
382, 1.04420953776, 2.5, 184.068441109
383, 4, 0, 185.0717967697
384, -3.061467458921, 2.5, 184.6089637399
385, -1.04420953776, 2.5, 184.068441109
386, -4.165284670629e-14, 0, 184
387, -4.87009143207, 2.5, 185.6531732777
388, -6.34682672233, 2.5, 187.1299085679
389, -4, 0, 185.0717967697
390, -7.39103626009, 2.5, 188.9385325411
391, -7.93155889099, 2.5, 190.9557904622
392, -6.928203230276, 0, 188
393, -7.937549574002, 2.500204534492, 192.9976506203
394, -7.408873150076, 2.500204534492, 195.018045501
395, -7.999862273683, 0.0002045344923003, 191.9530574595
396, -6.452611739297, 2.504292193987, 196.7290381413
397, -5.008779190018, 2.504292193987, 198.237958883
398, -7.037120984672, 0.004496728479683, 195.8051186903
399, -4.709433607583, 0.1953103784777, 198.4669339795
400, -3.669265570394, 2.69101818449, 199.1089021778
401, -2.709976562646, 1.857684851157, 199.5270197974
402, 6.452611739297, -2.495707806013, 196.7290381413
403, 5.008779190018, -2.495707806013, 198.237958883
404, 3.669265570394, -2.30898181551, 199.1089021778
405, 2.586464490448, -0.8508646286017, 199.570350153
406, 7.937549574002, -2.499795465508, 192.9976506203
407, 7.408873150076, -2.499795465508, 195.018045501
408, 7.39103626009, -2.5, 188.9385325411
409, 7.93155889099, -2.5, 190.9557904622
410, 4.87009143207, -2.5, 185.6531732777
411, 6.34682672233, -2.5, 187.1299085679
412, 1.04420953776, -2.5, 184.068441109
413, 3.061467458921, -2.5, 184.6089637399
414, -1.04420953776, -2.5, 184.068441109
415, -3.061467458921, -2.5, 184.6089637399
416, -6.34682672233, -2.5, 187.1299085679
417, -4.87009143207, -2.5, 185.6531732777
418, -7.93155889099, -2.5, 190.9557904622
419, -7.39103626009, -2.5, 188.9385325411
420, -7.408873150076, -2.499795465508, 195.018045501
421, -7.937549574002, -2.499795465508, 192.9976506203
422, -5.008779190018, -2.495707806013, 198.237958883
423, -6.452611739297, -2.495707806013, 196.7290381413
424, -3.669265570394, -2.30898181551, 199.1089021778
425, -2.586464490448, -0.8508646286017, 199.570350153
426, 0.914301775996, -0.2085494797587, 199.9475815354
427, -0.914301775996, -0.2085494797587, 199.9475815354
428, -1.704319104564, 1.024351517824, 199.8163480213
429, 1.704319104564, 1.024351517824, 199.8163480213
430, -5, 0, 114
431, 5, 0, 114
432, 0, -3, 114
433, 0, 3, 114
434, 0, 0, 48
435, -2.5, 1.5, 48
436, -2.5, -1.5, 48
437, 2.5, -1.5, 48
438, 2.5, 1.5, 48
439, 0, 0, 180
440, -2.5, -1.5, 180
441, -2.5, 1.5, 180
442, 2.5, -1.5, 180
443, 2.5, 1.5, 180
444, 7.246933262871, 0, 75.04592313609
445, -7.246933262871, 0, 75.04592313609
446, 14, 0, 72.24871130596
447, -14, 0, 72.24871130596
448, 19.79898987322, 0, 67.79898987322
449, 24.24871130596, 0, 62
450, 27.04592313609, 0, 55.24693326287
451, 28, 0, 48
452, 27.04592313609, 0, 40.75306673713
453, 19.79898987322, 0, 28.20101012678
454, 24.24871130596, 0, 34
455, 7.24693326287, 0, 20.95407686391
456, -1.706539592236e-13, 0, 20
457, 14, 0, 23.75128869404
458, -7.246933262871, 0, 20.95407686391
459, -14, 0, 23.75128869404
460, -19.79898987322, 0, 28.20101012678
461, -24.24871130596, 0, 34
462, -27.04592313609, 0, 40.75306673713
463, -27.04592313609, 0, 55.24693326287
464, -24.24871130596, 0, 62
465, -28, 0, 48
466, -19.79898987322, 0, 67.79898987322
467, -7.174332940777e-15, 5, 48
468, -3.751288694036, 5, 62
469, -14, 5, 51.75128869404
470, 3.751288694036, 5, 34
471, 14, 5, 44.24871130596
472, 10.24871130596, 5, 58.24871130596
473, -10.24871130596, 5, 37.75128869404
474, 5.124355652982, 5, 67.12435565298
475, -14, 5, 62
476, 19.12435565298, 5, 53.12435565298
477, 14, 5, 34
478, 9.562177826491, 5, 69.68653347947
479, 2.562177826491, 5, 71.56217782649
480, -1.875644347018, 5, 69
481, -8.875644347018, 5, 67.12435565298
482, 0.6865334794732, 5, 64.56217782649
483, 17.24871130596, 5, 60.12435565298
484, 12.12435565298, 5, 65.24871130596
485, 7.686533479473, 5, 62.68653347947
486, 23.56217782649, 5, 50.56217782649
487, 21.68653347947, 5, 57.56217782649
488, 14.68653347947, 5, 55.68653347947
489, 19.12435565298, 5, 39.12435565298
490, 21, 5, 46.12435565298
491, 16.56217782649, 5, 48.68653347947
492, 14, 5, 28.87564434702
493, 19.12435565298, 5, 34
494, 14, 5, 39.12435565298
495, 1.875644347018, 5, 27
496, 8.875644347018, 5, 28.87564434702
497, 8.875644347018, 5, 34
498, -12.12435565298, 5, 30.75128869404
499, -5.124355652982, 5, 28.87564434702
500, -3.248711305964, 5, 35.87564434702
501, -17.24871130596, 5, 35.87564434702
502, -21, 5, 49.87564434702
503, -19.12435565298, 5, 42.87564434702
504, -12.12435565298, 5, 44.75128869404
505, -19.12435565298, 5, 56.87564434702
506, -14, 5, 67.12435565298
507, -19.12435565298, 5, 62
508, -14, 5, 56.87564434702
509, -8.875644347018, 5, 62
510, -7, 5, 49.87564434702
511, -8.875644347018, 5, 56.87564434702
512, -1.875644347018, 5, 55
513, 3.248711305964, 5, 60.12435565298
514, 5.124355652982, 5, 53.12435565298
515, -5.124355652982, 5, 42.87564434702
516, 7, 5, 46.12435565298
517, 8.875644347018, 5, 39.12435565298
518, 1.875644347018, 5, 41
519, 12.12435565298, 5, 51.24871130596
520, -7.174332940777e-15, -5, 48
521, -3.751288694036, -5, 62
522, -14, -5, 51.75128869404
523, 3.751288694036, -5, 34
524, 14, -5, 44.24871130596
525, 10.24871130596, -5, 58.24871130596
526, -10.24871130596, -5, 37.75128869404
527, 5.124355652982, -5, 67.12435565298
528, -14, -5, 62
529, 19.12435565298, -5, 53.12435565298
530, 14, -5, 34
531, 2.562177826491, -5, 71.56217782649
532, 9.562177826491, -5, 69.68653347947
533, -8.875644347018, -5, 67.12435565298
534, -1.875644347018, -5, 69
535, 0.6865334794732, -5, 64.56217782649
536, 12.12435565298, -5, 65.24871130596
537, 17.24871130596, -5, 60.12435565298
538, 7.686533479473, -5, 62.68653347947
539, 21.68653347947, -5, 57.56217782649
540, 23.56217782649, -5, 50.56217782649
541, 14.68653347947, -5, 55.68653347947
542, 21, -5, 46.12435565298
543, 19.12435565298, -5, 39.12435565298
544, 16.56217782649, -5, 48.68653347947
545, 19.12435565298, -5, 34
546, 14, -5, 28.87564434702
547, 14, -5, 39.12435565298
548, 8.875644347018, -5, 28.87564434702
549, 1.875644347018, -5, 27
550, 8.875644347018, -5, 34
551, -5.124355652982, -5, 28.87564434702
552, -12.12435565298, -5, 30.75128869404
553, -3.248711305964, -5, 35.87564434702
554, -17.24871130596, -5, 35.87564434702
555, -19.12435565298, -5, 42.87564434702
556, -21, -5, 49.87564434702
557, -12.12435565298, -5, 44.75128869404
558, -19.12435565298, -5, 56.87564434702
559, -19.12435565298, -5, 62
560, -14, -5, 67.12435565298
561, -14, -5, 56.87564434702
562, -8.875644347018, -5, 62
563, -1.875644347018, -5, 55
564, -8.875644347018, -5, 56.87564434702
565, -7, -5, 49.87564434702
566, 5.124355652982, -5, 53.12435565298
567, 3.248711305964, -5, 60.12435565298
568, -5.124355652982, -5, 42.87564434702
569, 1.875644347018, -5, 41
570, 8.875644347018, -5, 39.12435565298
571, 7, -5, 46.12435565298
572, 12.12435565298, -5, 51.24871130596
573, 15.28761091622, -7.216767801455e-17, 195.8350285147
574, 9.274950641241, 0, 202.7846252033
575, 1.879065298762, 1.7763568394e-15, 204.5912207106
576, 16.30405949595, -2.5, 198.9175142573
577, 17.64380545811, -2.5, 193.9175142573
578, 16.30405949595, 2.5, 198.9175142573
579, 17.64380545811, 2.5, 193.9175142573
580, 5.701942847077, 2.5, 183.4696300282
581, 7.495093791413, 2.5, 184.5049062086
582, 5.701942847077, -2.5, 183.4696300282
583, 7.495093791413, -2.5, 184.5049062086
584, 9.333333333333, 0, 182.6666666667
585, 0.5965608728647, 2.5, 181.8377929749
586, 2.667113233685, 2.5, 181.8377929749
587, 0.5965608728647, -2.5, 181.8377929749
588, 2.667113233685, -2.5, 181.8377929749
589, 3.26367410655, 0, 179.4029925601
590, -7.39089132769, -2.5, 184.5328271746
591, -9.124928405887, 0, 182.7225085987
592, -7.39089132769, 2.5, 184.5328271746
593, -5.597740383354, 2.5, 183.4975509942
594, -5.597740383354, -2.5, 183.4975509942
595, 10.1622070251, 2.5, 189.3328867663
596, 10.17409037491, 2.500204534492, 191.3580256038
597, 10.17409037491, -2.499795465508, 191.3580256038
598, 12.59700743988, 0, 188.7363258935
599, 10.1622070251, -2.5, 189.3328867663
600, -9.140737844336, 2.504292193987, 196.340541477
601, -10.06600999924, 2.500204534492, 194.6293590862
602, -10.06600999924, -2.499795465508, 194.6293590862
603, -12.38084668855, 0, 195.2789928582
604, -9.140737844336, -2.495707806013, 196.340541477
605, -6.308593102571, 2.69101818449, 200.1820091744
606, -3.401233424572, 2.69101818449, 201.9074948027
607, -3.472079033996, 0, 204.5411655079
608, -3.401233424572, -2.30898181551, 201.9074948027
609, -6.379438711995, 0, 202.8156798796
610, 6.298503719941, 0, 181.0348296134
611, -6.308593102571, -2.30898181551, 200.1820091744
612, -9.286798389993, 0, 201.0901942513
613, 12.47543789887, 0, 192.0232674717
614, 10.0525208339, -2.499795465508, 194.644967182
615, -6.217568727888, 0, 181.1843201204
616, -2.690380705355, 2.5, 181.9593625159
617, -2.690380705355, -2.5, 181.9593625159
618, -0.02326747167005, 0, 179.5245621011
619, -7.59371369506, 2.504292193987, 199.2461421735
620, -10.83382253927, 0, 198.1845935548
621, -7.59371369506, -2.495707806013, 199.2461421735
622, 10.0525208339, 2.500204534492, 194.644967182
623, 12.35386835786, 0, 195.3102090499
624, -3.31020904989, 0, 179.6461316421
625, 0.9395326493808, 0.8333333333333, 202.2956103553
626, 0.9395326493808, -0.8333333333333, 202.2956103553
627, 0.03122166029049, -1.041882813092, 202.1911168881
628, -2.771315697408, 4.166666666667, 202.1342860591
629, -1.736039516998, 3.333333333333, 202.2705827539
630, -0.7256612581935, 0.1910181844904, 201.932522404
631, -12.74957043532, 0, 188.583762898
632, -16.37478521766, 0, 190.291881449
633, -12.56520856193, 0, 191.9313778781
634, -1.736039516998, 0, 208.2705827539
635, -0.7965068676172, 2.5, 204.5661931092
636, -0.7965068676172, -2.5, 204.5661931092
637, 0.9395326493808, 2.5, 208.2956103553
638, 9.126930844688, 2.5, 187.539735822
639, 9.126930844688, -2.5, 187.539735822
640, -8.4261675081, -2.5, 186.3259781189
641, -8.4261675081, 2.5, 186.3259781189
642, -9.643399194997, 0, 205.2053511635
643, -14.85067738212, 0, 198.6394964291
644, -2.644350506088, -3.541882813092, 202.1660892867
645, -10.05412664943, 2.5, 192.6042202487
646, -10.05412664943, -2.5, 192.6042202487
647, 2.743394731404, 4.166666666667, 202.2384885228
648, 3.373312458568, 2.69101818449, 202.0116972664
649, 9.127248678994, 2.504292193987, 196.3561495728
650, 7.587789820683, 0.004292193987383, 200.0933576496
651, 10.81440949955, 2.5, 199.0474171266
652, 8.513061975587, 0.0002045344923003, 198.3821752587
653, 9.127248678994, -2.495707806013, 196.3561495728
654, 10.81440949955, -2.5, 199.0474171266
655, -15.03503925551, 0, 185.291881449
656, -6.736039516998, 0, 206.9308367918
657, -13.30365323284, 0, 201.5450971257
658, -16.19042334427, 0, 193.6394964291
659, 5.545786309711, -1.041882813092, 201.2878191345
660, 6.302669228195, 0.1910181844904, 201.0292246504
661, 6.63747532062, -2.5, 200.8564142168
662, 10.96517038661, 0, 185.7014962801
663, 13.32692070451, 0, 182.3333333333
664, 9.666666666667, 0, 178.6730792955
665, -10.9372494206, 0, 185.6531357483
666, -10.23848852282, -2.5, 189.2566052686
667, -10.23848852282, 2.5, 189.2566052686
668, 6.631837053275, 0, 177.0412422422
669, -13.22271824079, 0, 182.3612542993
670, 14.95875775779, 0, 185.3681629467
671, 1.631837053275, 0, 175.7014962801
672, -9.562464202944, 0, 178.7010002615
673, -6.655104524945, 0, 177.1628117832
674, -1.655104524945, 0, 175.8230658211
675, 13.82073963704, -2.5, 195.5726187823
676, 13.82073963704, 2.5, 195.5726187823
677, 12.28128077873, -3.608383900728e-17, 199.309826859
678, 7.589060200726, -2.495707806013, 199.2635092508
679, 0.9395326493808, -2.5, 208.2956103553
680, 7.589060200726, 2.504292193987, 199.2635092508
681, 16.29850371994, 0, 190.3681629467
682, 2.616429540084, -3.541882813092, 202.2702917505
683, 6.345593871614, -2.5, 203.7670978193
684, 9.276221021283, -2.5, 201.9547768046
685, 9.276221021283, 2.5, 201.9547768046
686, 6.303939608237, 2.69101818449, 200.1993762517
687, 13.29772935846, 2.5, 202.3923126017
688, 9.63747532062, -2.5, 206.0525666395
689, 13.29772935846, -2.5, 202.3923126017
690, 1.974808829791, 1.666666666667, 202.1593136604
691, 2.647651200375, 2.5, 204.6703955729
692, 2.604726556955, 0.1910181844904, 201.932522404
693, 5.939532649381, 2.5, 206.9558643931
694, 0.9395326493808, 2.5, 202.2956103553
695, 1.847843638471, -1.041882813092, 202.1911168881
696, 9.63747532062, 2.5, 206.0525666395
697, 5.939532649381, -2.5, 206.9558643931
698, 6.345593871614, 2.5, 203.7670978193
699, 5.577007970001, 8.881784197001e-16, 203.687922957
700, 2.647651200375, -2.5, 204.6703955729
701, 0.9395326493808, -2.5, 202.2956103553
702, 13.94230917805, -2.5, 192.2856772041
703, 13.94230917805, 2.5, 192.2856772041
704, -2.5, -1.5, 114
705, -2.5, 1.5, 114
706, 0, 0, 114
707, 2.5, 1.5, 114
708, 2.5, -1.5, 114
709, 8.975377643885, -0.8976663497507, 65.49317875684
710, 5.93537837674, -0.01296017741486, 25.92144332982
711, -6.011920087684, -0.5, 28.36320878172
712, -3.005960043842, -2.75, 24.18160439086
713, -1.130315696824, -2.75, 31.18160439086
714, -8.130315696824, -2.75, 33.05724873788
715, -10.00596004384, -2.75, 26.05724873788
716, 8.875644347018, 0, 28.87564434702
717, 3.751288694036, 0, 34
718, 4.843333535388, 2.493519911293, 29.96072166491
719, 4.843333535388, -2.506480088707, 29.96072166491
720, 9.96768918837, -2.506480088707, 24.83636601193
721, 9.96768918837, 2.493519911293, 24.83636601193
722, 5.124355652982, 0, 67.12435565298
723, 9.562177826491, 0, 69.68653347947
724, 11.48768882194, -2.948833174875, 68.8709450314
725, 7.049866648434, 2.051166825125, 66.30876720491
726, 7.049866648434, -2.948833174875, 66.30876720491
727, 1.875644347018, 0, 27
728, 2.96768918837, 2.493519911293, 22.96072166491
729, -12.12435565298, 0, 30.75128869404
730, -8.130315696824, 2.25, 33.05724873788
731, -10.00596004384, 2.25, 26.05724873788
732, 2.96768918837, -2.506480088707, 22.96072166491
733, 14, 0, 28.87564434702
734, 8.875644347018, 0, 34
735, 14, 0, 34
736, 19.12435565298, 0, 53.12435565298
737, 14.68653347947, 0, 55.68653347947
738, 16.56217782649, 0, 48.68653347947
739, 14, 0, 39.12435565298
740, -8.875644347018, 0, 62
741, -14, 0, 67.12435565298
742, -14, 0, 62
743, 23.56217782649, 0, 50.56217782649
744, -10.24871130596, 0, 37.75128869404
745, 7, 0, 46.12435565298
746, 1.875644347018, 0, 41
747, 5.124355652982, 0, 53.12435565298
748, 8.875644347018, 0, 39.12435565298
749, 12.12435565298, 0, 51.24871130596
750, 10.24871130596, 0, 58.24871130596
751, -1.875644347018, 0, 55
752, 14, 0, 44.24871130596
753, 3.248711305964, 0, 60.12435565298
754, -3.751288694036, 0, 62
755, 2.562177826491, 0, 71.56217782649
756, 21.68653347947, 0, 57.56217782649
757, 19.12435565298, 0, 34
758, -19.12435565298, 0, 62
759, 0.6865334794732, 0, 64.56217782649
760, -1.875644347018, 0, 69
761, 11.48768882194, 2.051166825125, 68.8709450314
762, -8.875644347018, 0, 67.12435565298
763, 21, 0, 46.12435565298
764, -3.248711305964, 0, 35.87564434702
765, 19.12435565298, 0, 39.12435565298
766, 9.612044474925, -2.948833174875, 61.8709450314
767, -14, 0, 56.87564434702
768, -21, 0, 49.87564434702
769, 17.24871130596, 0, 60.12435565298
770, -8.875644347018, 0, 56.87564434702
771, -7, 0, 49.87564434702
772, -5.124355652982, 0, 42.87564434702
773, -19.12435565298, 0, 42.87564434702
774, -14, 0, 51.75128869404
775, -19.12435565298, 0, 56.87564434702
776, -12.12435565298, 0, 44.75128869404
777, -17.24871130596, 0, 35.87564434702
778, 9.612044474925, 2.051166825125, 61.8709450314
779, 16.61204447492, -2.948833174875, 63.74658937842
780, 2.612044474925, 2.051166825125, 63.74658937842
781, 2.612044474925, -2.948833174875, 63.74658937842
782, -3.005960043842, 2.25, 24.18160439086


** Volume elements
*Element, TYPE=C3D10, ELSET=Evolumes
388, 41, 40, 16, 573, 52, 179, 177, 577, 576, 578
389, 41, 16, 17, 573, 177, 28, 178, 577, 578, 579
390, 353, 352, 196, 268, 383, 580, 581, 583, 582, 584
391, 352, 351, 202, 274, 386, 585, 586, 588, 587, 589
392, 201, 344, 273, 351, 592, 590, 591, 593, 389, 594
393, 203, 342, 354, 275, 596, 377, 595, 598, 597, 599
394, 200, 339, 340, 272, 601, 398, 600, 603, 602, 604
395, 346, 197, 198, 269, 606, 246, 605, 608, 607, 609
396, 274, 196, 352, 268, 610, 580, 588, 302, 584, 582
397, 198, 270, 346, 269, 612, 611, 605, 609, 318, 608
398, 196, 352, 202, 274, 580, 586, 230, 610, 588, 589
399, 342, 203, 278, 275, 596, 613, 614, 597, 598, 296
400, 204, 201, 273, 351, 236, 591, 615, 616, 593, 594
401, 276, 202, 351, 274, 618, 585, 617, 305, 589, 587
402, 272, 340, 198, 270, 604, 619, 620, 317, 621, 612
403, 278, 342, 206, 203, 614, 622, 623, 613, 596, 224
404, 276, 204, 273, 351, 624, 615, 308, 617, 616, 594
405, 351, 276, 204, 202, 617, 624, 616, 585, 618, 233
406, 200, 340, 198, 272, 600, 619, 245, 603, 604, 620
407, 198, 340, 346, 270, 619, 399, 605, 612, 621, 611
408, 108, 109, 350, 575, 111, 427, 366, 626, 625, 627
409, 345, 346, 109, 197, 401, 428, 359, 628, 606, 629
410, 109, 346, 350, 575, 428, 425, 427, 625, 630, 627
411, 199, 47, 271, 272, 632, 310, 631, 633, 312, 314
412, 269, 197, 1, 575, 607, 209, 634, 636, 635, 637
413, 353, 65, 354, 203, 378, 376, 380, 638, 252, 595
414, 354, 88, 353, 275, 408, 411, 380, 599, 323, 639
415, 344, 273, 92, 343, 590, 331, 416, 392, 640, 419
416, 343, 69, 344, 201, 390, 388, 392, 641, 260, 592
417, 269, 198, 270, 49, 609, 612, 318, 281, 642, 316
418, 198, 24, 200, 272, 244, 240, 245, 620, 643, 603
419, 269, 350, 346, 575, 644, 425, 608, 636, 627, 630
420, 346, 95, 350, 269, 424, 364, 425, 608, 287, 644
421, 342, 87, 354, 275, 406, 409, 377, 597, 324, 599
422, 64, 342, 354, 203, 373, 377, 375, 251, 596, 595
423, 343, 339, 70, 200, 395, 393, 391, 645, 601, 263
424, 272, 343, 339, 93, 646, 395, 602, 336, 418, 421
425, 195, 348, 62, 347, 647, 356, 213, 648, 371, 370
426, 206, 341, 342, 574, 649, 374, 622, 651, 650, 652
427, 342, 341, 278, 574, 374, 653, 614, 652, 650, 654
428, 72, 346, 345, 197, 400, 401, 358, 214, 606, 628
429, 278, 206, 342, 574, 623, 622, 614, 654, 651, 652
430, 272, 339, 340, 94, 602, 398, 604, 335, 420, 423
431, 199, 46, 271, 47, 655, 309, 631, 632, 58, 310
432, 340, 71, 339, 200, 396, 394, 398, 600, 264, 601
433, 341, 278, 86, 342, 653, 322, 402, 374, 614, 407
434, 206, 341, 63, 342, 649, 368, 249, 622, 374, 372
435, 25, 1, 269, 197, 37, 634, 656, 210, 209, 607
436, 48, 270, 198, 49, 315, 612, 657, 60, 316, 642
437, 24, 23, 200, 272, 35, 241, 240, 643, 658, 603
438, 347, 349, 85, 574, 405, 362, 404, 660, 659, 661
439, 196, 275, 268, 42, 662, 299, 584, 663, 295, 297
440, 43, 196, 274, 268, 664, 610, 300, 298, 584, 302
441, 46, 273, 199, 271, 307, 665, 655, 309, 311, 631
442, 197, 346, 109, 575, 606, 428, 629, 635, 630, 625
443, 65, 353, 196, 203, 378, 581, 253, 252, 638, 227
444, 268, 353, 88, 275, 583, 411, 326, 299, 639, 323
445, 271, 92, 273, 343, 334, 331, 311, 666, 419, 640
446, 69, 343, 199, 201, 390, 667, 261, 260, 641, 239
447, 196, 202, 43, 274, 230, 668, 664, 610, 589, 300
448, 46, 199, 273, 201, 655, 665, 307, 669, 239, 591
449, 275, 196, 203, 42, 662, 227, 598, 295, 663, 670
450, 198, 197, 25, 269, 246, 210, 243, 609, 607, 656
451, 199, 23, 272, 200, 237, 658, 633, 242, 241, 603
452, 202, 276, 44, 274, 618, 303, 671, 589, 305, 301
453, 273, 204, 21, 201, 615, 231, 672, 591, 236, 235
454, 48, 272, 198, 270, 313, 620, 657, 315, 317, 612
455, 273, 276, 21, 204, 308, 673, 672, 615, 624, 231
456, 204, 276, 44, 202, 624, 303, 674, 233, 618, 671
457, 343, 70, 199, 200, 391, 262, 667, 645, 263, 242
458, 343, 272, 271, 93, 646, 314, 666, 418, 336, 333
459, 95, 346, 340, 270, 424, 399, 422, 337, 611, 621
460, 346, 197, 269, 575, 606, 607, 608, 630, 635, 636
461, 206, 278, 573, 574, 623, 675, 676, 651, 654, 677
462, 87, 342, 278, 275, 406, 614, 321, 324, 597, 296
463, 342, 64, 206, 203, 373, 250, 622, 596, 251, 224
464, 18, 203, 196, 42, 222, 227, 226, 181, 670, 663
465, 199, 46, 22, 201, 655, 188, 238, 239, 669, 234
466, 3, 345, 109, 197, 357, 359, 112, 215, 628, 629
467, 199, 272, 23, 47, 633, 658, 237, 632, 312, 193
468, 272, 94, 340, 270, 335, 423, 604, 317, 338, 621
469, 71, 340, 198, 200, 396, 619, 265, 264, 600, 245
470, 198, 269, 25, 49, 609, 656, 243, 642, 281, 175
471, 277, 278, 86, 341, 293, 322, 319, 678, 653, 402
472, 2, 269, 1, 575, 282, 634, 38, 679, 636, 637
473, 206, 205, 63, 341, 221, 248, 249, 649, 680, 368
474, 346, 270, 95, 269, 611, 337, 424, 608, 318, 287
475, 21, 276, 273, 45, 673, 308, 672, 189, 304, 306
476, 198, 48, 24, 272, 657, 192, 244, 620, 313, 643
477, 42, 196, 43, 268, 663, 664, 54, 297, 584, 298
478, 43, 202, 44, 274, 668, 671, 55, 300, 589, 301
479, 17, 275, 203, 42, 681, 598, 223, 180, 295, 670
480, 46, 273, 21, 201, 307, 672, 187, 669, 591, 235
481, 44, 21, 276, 204, 185, 673, 303, 674, 231, 624
482, 85, 349, 267, 574, 362, 682, 284, 661, 659, 683
483, 277, 278, 341, 574, 293, 653, 678, 684, 654, 650
484, 206, 205, 341, 574, 221, 680, 649, 651, 685, 650
485, 341, 347, 85, 574, 369, 404, 403, 650, 660, 661
486, 195, 62, 205, 347, 213, 247, 218, 648, 370, 686
487, 72, 340, 346, 198, 397, 399, 400, 266, 619, 605
488, 39, 16, 40, 574, 176, 179, 51, 688, 687, 689
489, 205, 347, 62, 341, 686, 370, 247, 680, 369, 367
490, 72, 198, 346, 197, 266, 605, 400, 214, 246, 606
491, 21, 44, 276, 45, 185, 303, 673, 189, 56, 304
492, 22, 23, 46, 199, 34, 190, 188, 238, 237, 655
493, 46, 199, 23, 47, 655, 237, 190, 58, 632, 193
494, 196, 19, 18, 42, 225, 30, 226, 663, 182, 181
495, 272, 23, 48, 24, 658, 191, 313, 643, 35, 192
496, 272, 48, 23, 47, 313, 191, 658, 312, 59, 193
497, 195, 348, 347, 575, 647, 371, 648, 691, 690, 692
498, 21, 273, 46, 45, 672, 307, 187, 189, 306, 57
499, 2, 25, 269, 49, 173, 656, 282, 61, 175, 281
500, 21, 22, 46, 201, 33, 188, 187, 235, 234, 669
501, 203, 18, 17, 42, 222, 29, 223, 670, 181, 180
502, 25, 269, 1, 2, 656, 634, 37, 173, 282, 38
503, 48, 198, 25, 49, 657, 243, 194, 60, 642, 175
504, 198, 25, 24, 48, 243, 36, 244, 657, 194, 192
505, 15, 2, 1, 575, 172, 38, 26, 693, 679, 637
506, 277, 40, 278, 574, 289, 291, 293, 684, 689, 654
507, 15, 1, 195, 575, 26, 208, 207, 693, 637, 691
508, 3, 197, 109, 575, 215, 629, 112, 694, 635, 625
509, 278, 40, 573, 574, 291, 576, 675, 654, 689, 677
510, 196, 43, 202, 19, 664, 668, 230, 225, 183, 229
511, 20, 204, 44, 202, 232, 674, 186, 228, 233, 671
512, 353, 196, 66, 65, 581, 254, 379, 378, 253, 77
513, 343, 69, 199, 70, 390, 261, 667, 391, 81, 262
514, 343, 271, 92, 93, 666, 334, 419, 418, 333, 104
515, 353, 88, 89, 268, 411, 100, 410, 583, 326, 325
516, 108, 349, 109, 575, 365, 426, 111, 626, 695, 625
517, 94, 95, 340, 270, 106, 422, 423, 338, 337, 621
518, 89, 352, 274, 90, 413, 588, 328, 101, 412, 327
519, 67, 202, 66, 352, 256, 255, 78, 382, 586, 381
520, 64, 354, 65, 203, 375, 376, 76, 251, 595, 252
521, 91, 273, 92, 344, 332, 331, 103, 417, 590, 416
522, 344, 201, 69, 68, 592, 260, 388, 387, 259, 80
523, 354, 87, 88, 275, 409, 99, 408, 599, 324, 323
524, 347, 348, 109, 575, 371, 360, 429, 692, 690, 625
525, 16, 39, 15, 574, 176, 174, 27, 687, 688, 696
526, 340, 198, 72, 71, 619, 266, 397, 396, 265, 83
527, 277, 86, 85, 341, 319, 97, 320, 678, 402, 403
528, 62, 63, 205, 341, 74, 248, 247, 367, 368, 680
529, 85, 277, 341, 574, 320, 678, 403, 661, 684, 650
530, 351, 91, 276, 90, 415, 329, 617, 414, 102, 330
531, 68, 204, 67, 351, 258, 257, 79, 384, 616, 385
532, 21, 44, 20, 204, 185, 186, 32, 231, 674, 232
533, 42, 43, 196, 19, 54, 664, 663, 182, 183, 225
534, 86, 342, 278, 87, 407, 614, 322, 98, 406, 321
535, 206, 342, 63, 64, 622, 372, 249, 250, 373, 75
536, 17, 41, 275, 42, 178, 294, 681, 180, 53, 295
537, 202, 20, 19, 43, 228, 31, 229, 668, 184, 183
538, 43, 44, 202, 20, 55, 671, 668, 184, 186, 228
539, 39, 2, 15, 575, 50, 172, 174, 697, 679, 693
540, 3, 62, 195, 348, 73, 213, 212, 355, 356, 647
541, 339, 94, 272, 93, 420, 335, 602, 421, 105, 336
542, 71, 70, 339, 200, 82, 393, 394, 264, 263, 601
543, 205, 195, 347, 574, 218, 648, 686, 685, 698, 660
544, 1, 197, 195, 575, 209, 211, 208, 637, 635, 691
545, 195, 347, 574, 575, 648, 660, 698, 691, 692, 699
546, 267, 2, 39, 575, 279, 50, 280, 700, 679, 697
547, 15, 195, 574, 575, 207, 698, 696, 693, 691, 699
548, 267, 39, 574, 575, 280, 688, 683, 700, 697, 699
549, 205, 347, 341, 574, 686, 369, 680, 685, 660, 650
550, 85, 267, 277, 574, 284, 290, 320, 661, 683, 684
551, 205, 206, 16, 574, 221, 220, 216, 685, 651, 687
552, 3, 72, 345, 197, 84, 358, 357, 215, 214, 628
553, 16, 206, 573, 574, 220, 676, 578, 687, 651, 677
554, 573, 40, 16, 574, 576, 179, 578, 677, 689, 687
555, 109, 349, 347, 575, 426, 405, 429, 625, 695, 692
556, 267, 85, 4, 349, 284, 96, 285, 682, 362, 361
557, 195, 197, 3, 575, 211, 215, 212, 691, 635, 694
558, 4, 269, 267, 575, 286, 283, 285, 701, 636, 700
559, 574, 39, 15, 575, 688, 174, 696, 699, 697, 693
560, 278, 40, 41, 573, 291, 52, 292, 675, 576, 577
561, 39, 40, 277, 574, 51, 289, 288, 688, 689, 684
562, 350, 95, 4, 269, 364, 107, 363, 644, 287, 286
563, 267, 269, 2, 575, 283, 282, 279, 700, 636, 679
564, 17, 16, 206, 573, 28, 220, 219, 579, 578, 676
565, 205, 16, 15, 574, 216, 27, 217, 685, 687, 696
566, 15, 195, 205, 574, 207, 218, 217, 696, 698, 685
567, 267, 39, 277, 574, 280, 288, 290, 683, 688, 684
568, 275, 573, 41, 17, 702, 577, 294, 681, 579, 178
569, 41, 573, 275, 278, 577, 702, 294, 292, 675, 296
570, 275, 203, 573, 17, 598, 703, 702, 681, 223, 579
571, 573, 203, 275, 278, 703, 598, 702, 675, 613, 296
572, 203, 206, 573, 17, 224, 676, 703, 223, 219, 579
573, 573, 206, 203, 278, 676, 224, 703, 675, 623, 613
574, 343, 272, 199, 271, 646, 633, 667, 666, 314, 631
575, 272, 343, 200, 339, 646, 645, 603, 602, 395, 601
576, 343, 272, 200, 199, 646, 603, 645, 667, 633, 242
577, 273, 343, 199, 271, 640, 667, 665, 311, 666, 631
578, 273, 343, 201, 199, 640, 641, 591, 665, 667, 239
579, 343, 273, 201, 344, 640, 591, 641, 392, 590, 592
580, 196, 275, 353, 268, 662, 639, 581, 584, 299, 583
581, 275, 353, 203, 196, 639, 638, 598, 662, 581, 227
582, 353, 275, 203, 354, 639, 598, 638, 380, 599, 595
583, 89, 352, 268, 274, 413, 582, 325, 328, 588, 302
584, 352, 89, 268, 353, 413, 325, 582, 383, 410, 583
585, 66, 196, 352, 202, 254, 580, 381, 255, 230, 586
586, 196, 66, 352, 353, 254, 381, 580, 581, 379, 383
587, 90, 274, 351, 352, 327, 587, 414, 412, 588, 386
588, 351, 274, 90, 276, 587, 327, 414, 617, 305, 330
589, 67, 202, 351, 204, 256, 585, 385, 257, 233, 616
590, 202, 67, 351, 352, 256, 385, 585, 586, 382, 386
591, 68, 351, 201, 204, 384, 593, 259, 258, 616, 236
592, 201, 351, 68, 344, 593, 384, 259, 592, 389, 387
593, 91, 351, 273, 344, 415, 594, 332, 417, 389, 590
594, 273, 351, 91, 276, 594, 415, 332, 308, 617, 329
595, 4, 575, 350, 269, 701, 627, 363, 286, 636, 644
596, 350, 575, 4, 108, 627, 701, 363, 366, 626, 110
597, 575, 574, 349, 347, 699, 659, 695, 692, 660, 405
598, 349, 574, 575, 267, 659, 699, 695, 682, 683, 700
599, 349, 575, 4, 267, 695, 701, 361, 682, 700, 285
600, 4, 575, 349, 108, 701, 695, 361, 110, 626, 365
601, 348, 575, 3, 109, 690, 694, 355, 360, 625, 112
602, 3, 575, 348, 195, 694, 690, 355, 212, 691, 647
603, 434, 7, 5, 439, 705, 114, 704, 706, 441, 440
604, 6, 434, 5, 10, 436, 704, 113, 121, 437, 432
605, 12, 7, 8, 434, 433, 115, 123, 438, 705, 435
606, 6, 8, 5, 434, 116, 430, 113, 436, 435, 704
607, 434, 8, 5, 7, 435, 430, 704, 705, 115, 114
608, 439, 9, 12, 11, 442, 431, 707, 443, 118, 119
609, 439, 7, 12, 434, 441, 433, 707, 706, 705, 438
610, 12, 7, 439, 11, 433, 441, 707, 119, 124, 443
611, 10, 12, 439, 9, 120, 707, 708, 117, 431, 442
612, 439, 12, 10, 434, 707, 120, 708, 706, 438, 437
613, 439, 5, 10, 9, 440, 432, 708, 442, 122, 117
614, 10, 5, 439, 434, 432, 440, 708, 437, 704, 706
615, 523, 154, 526, 711, 549, 551, 553, 713, 712, 714
616, 154, 155, 526, 711, 166, 552, 551, 712, 715, 714
617, 523, 470, 153, 710, 717, 716, 548, 719, 718, 720
618, 153, 470, 129, 710, 716, 496, 457, 720, 718, 721
619, 474, 149, 527, 709, 723, 532, 722, 725, 724, 726
620, 523, 130, 470, 710, 727, 495, 717, 719, 728, 718
621, 473, 155, 131, 711, 729, 459, 498, 730, 715, 731
622, 153, 129, 154, 710, 457, 455, 165, 720, 721, 732
623, 477, 523, 153, 530, 734, 548, 733, 735, 550, 546
624, 529, 472, 476, 471, 737, 488, 736, 738, 519, 491
625, 524, 523, 477, 530, 570, 734, 739, 547, 550, 735
626, 159, 475, 521, 528, 741, 740, 533, 560, 742, 562
627, 127, 471, 529, 476, 490, 738, 743, 486, 491, 736
628, 473, 526, 155, 711, 744, 552, 729, 730, 714, 715
629, 130, 523, 154, 710, 727, 549, 456, 728, 719, 732
630, 471, 467, 470, 520, 516, 518, 517, 745, 434, 746
631, 471, 472, 467, 520, 519, 514, 516, 745, 747, 434
632, 470, 520, 523, 524, 746, 569, 717, 748, 571, 570
633, 472, 471, 525, 520, 519, 749, 750, 747, 745, 566
634, 468, 467, 472, 520, 512, 514, 513, 751, 434, 747
635, 525, 520, 471, 524, 566, 745, 749, 572, 571, 752
636, 468, 472, 521, 520, 513, 753, 754, 751, 747, 563
637, 471, 520, 470, 524, 745, 746, 517, 752, 571, 748
638, 521, 472, 525, 520, 753, 750, 567, 563, 747, 566
639, 14, 149, 527, 474, 160, 532, 531, 755, 723, 722
640, 126, 529, 476, 127, 756, 736, 487, 138, 743, 486
641, 524, 477, 152, 530, 739, 757, 543, 547, 735, 545
642, 477, 530, 153, 152, 735, 546, 733, 757, 545, 164
643, 475, 159, 158, 528, 741, 170, 758, 742, 560, 559
644, 14, 527, 468, 474, 531, 759, 760, 755, 722, 482
645, 529, 126, 476, 472, 756, 487, 736, 737, 483, 488
646, 129, 130, 154, 710, 141, 456, 455, 721, 728, 732
647, 474, 125, 149, 709, 478, 446, 723, 725, 761, 724
648, 525, 472, 529, 471, 750, 737, 541, 749, 519, 738
649, 153, 477, 470, 523, 733, 497, 716, 548, 734, 717
650, 159, 521, 475, 468, 533, 740, 741, 762, 754, 509
651, 525, 471, 529, 524, 749, 738, 541, 572, 752, 544
652, 524, 477, 523, 470, 739, 734, 570, 748, 497, 717
653, 477, 470, 524, 471, 497, 748, 739, 494, 517, 752
654, 127, 529, 471, 524, 743, 738, 490, 763, 544, 752
655, 473, 130, 470, 523, 499, 495, 500, 764, 727, 717
656, 153, 154, 523, 710, 165, 549, 548, 720, 732, 719
657, 14, 468, 521, 159, 760, 754, 534, 171, 762, 533
658, 127, 471, 128, 524, 490, 489, 139, 763, 752, 765
659, 527, 149, 525, 709, 532, 536, 538, 726, 724, 766
660, 521, 475, 522, 528, 740, 767, 564, 562, 742, 561
661, 522, 133, 156, 157, 768, 462, 555, 556, 465, 168
662, 159, 468, 475, 135, 762, 509, 741, 447, 481, 506
663, 470, 129, 477, 153, 496, 492, 497, 716, 457, 733
664, 477, 128, 471, 524, 493, 489, 494, 739, 765, 752
665, 14, 468, 13, 474, 760, 480, 148, 755, 482, 479
666, 468, 14, 521, 527, 760, 534, 754, 759, 531, 535
667, 529, 525, 150, 472, 541, 537, 539, 737, 750, 769
668, 529, 524, 127, 151, 544, 763, 743, 540, 542, 451
669, 468, 521, 469, 520, 754, 770, 511, 751, 563, 771
670, 473, 523, 470, 520, 764, 717, 500, 772, 569, 746
671, 469, 467, 468, 520, 510, 512, 511, 771, 434, 751
672, 473, 470, 467, 520, 500, 518, 515, 772, 746, 434
673, 130, 129, 470, 710, 141, 496, 495, 728, 721, 718
674, 524, 151, 128, 127, 542, 452, 765, 763, 451, 139
675, 468, 14, 135, 159, 760, 445, 481, 762, 171, 447
676, 468, 13, 135, 14, 480, 147, 481, 760, 148, 445
677, 522, 475, 158, 528, 767, 758, 558, 561, 742, 559
678, 469, 468, 475, 521, 511, 509, 508, 770, 754, 740
679, 474, 14, 125, 13, 755, 444, 478, 479, 148, 136
680, 149, 14, 125, 474, 160, 444, 446, 723, 755, 478
681, 529, 127, 126, 151, 743, 138, 756, 540, 451, 450
682, 475, 135, 158, 159, 506, 466, 758, 741, 447, 170
683, 477, 153, 129, 152, 733, 457, 492, 757, 164, 453
684, 524, 152, 477, 128, 543, 757, 739, 765, 454, 493
685, 475, 158, 135, 134, 758, 466, 506, 507, 464, 146
686, 150, 126, 529, 472, 449, 756, 539, 769, 483, 737
687, 152, 151, 128, 524, 163, 452, 454, 543, 542, 765
688, 125, 126, 150, 472, 137, 449, 448, 484, 483, 769
689, 133, 132, 469, 522, 144, 503, 502, 768, 773, 774
690, 522, 156, 133, 132, 555, 462, 768, 773, 461, 144
691, 134, 475, 158, 522, 507, 758, 464, 775, 767, 558
692, 126, 150, 529, 151, 449, 539, 756, 450, 162, 540
693, 477, 129, 128, 152, 492, 140, 493, 757, 453, 454
694, 469, 521, 522, 520, 770, 564, 774, 771, 563, 565
695, 523, 473, 526, 520, 764, 744, 553, 569, 772, 568
696, 467, 469, 473, 520, 510, 504, 515, 434, 771, 772
697, 522, 132, 469, 473, 773, 503, 774, 776, 501, 504
698, 132, 156, 526, 522, 461, 554, 777, 773, 555, 557
699, 526, 473, 132, 522, 744, 501, 777, 557, 776, 773
700, 522, 158, 133, 157, 558, 463, 768, 556, 169, 465
701, 522, 133, 158, 134, 768, 463, 558, 775, 145, 464
702, 472, 125, 474, 709, 484, 478, 485, 778, 761, 725
703, 475, 134, 469, 522, 507, 505, 508, 767, 775, 774
704, 521, 522, 475, 469, 564, 767, 740, 770, 774, 508
705, 134, 133, 469, 522, 145, 502, 505, 775, 768, 774
706, 523, 526, 473, 711, 553, 744, 764, 713, 714, 730
707, 522, 473, 469, 520, 776, 504, 774, 565, 772, 771
708, 473, 522, 526, 520, 776, 557, 744, 772, 565, 568
709, 132, 155, 131, 473, 460, 459, 143, 501, 729, 498
710, 154, 131, 155, 711, 458, 459, 166, 712, 731, 715
711, 155, 156, 526, 132, 167, 554, 552, 460, 461, 777
712, 155, 132, 526, 473, 460, 777, 552, 729, 501, 744
713, 150, 149, 709, 525, 161, 724, 779, 537, 536, 766
714, 709, 149, 150, 125, 724, 161, 779, 761, 446, 448
715, 709, 472, 150, 525, 778, 769, 779, 766, 750, 537
716, 150, 472, 709, 125, 769, 778, 779, 448, 484, 761
717, 468, 709, 474, 527, 780, 725, 482, 759, 726, 722
718, 474, 709, 468, 472, 725, 780, 482, 485, 778, 513
719, 468, 521, 709, 527, 754, 781, 780, 759, 535, 726
720, 709, 521, 468, 472, 781, 754, 780, 778, 753, 513
721, 521, 525, 709, 527, 567, 766, 781, 535, 538, 726
722, 709, 525, 521, 472, 766, 567, 781, 778, 750, 753
723, 130, 711, 473, 131, 782, 730, 499, 142, 731, 498
724, 711, 130, 473, 523, 782, 499, 730, 713, 727, 764
725, 711, 130, 154, 131, 782, 456, 712, 731, 142, 458
726, 130, 711, 154, 523, 782, 712, 456, 727, 713, 549

** Define element set Eall
*ELSET, ELSET=Eall
Evolumes



***********************************************************
** Element sets for materials and FEM element type (solid, shell, beam, fluid)
*ELSET,ELSET=FEMPart002_MaterialSolid
Evolumes

** Physical constants for SI(mm) unit system with Kelvins
*PHYSICAL CONSTANTS, ABSOLUTE ZERO=0, STEFAN BOLTZMANN=5.670374419e-11

***********************************************************
** Materials
** see information about units at file end
** FreeCAD material name: CalculiX-Steel
** Material (FEMPart (LongPendulum001))
*MATERIAL, NAME=FEMPart002_Material
*ELASTIC
210000,0.3
*DENSITY
7.9E-09
*EXPANSION, ZERO=0
1.2E-05

***********************************************************
** Sections
*SOLID SECTION, ELSET=FEMPart002_MaterialSolid, MATERIAL=FEMPart002_Material

***********************************************************
** At least one step is needed to run an CalculiX analysis of FreeCAD
*STEP, INC=2000
*STATIC
1.0,1.0,1e-05,1.0

***********************************************************
** Automatic 3-2-1 constraints
** nodeXYZ 167: x=-19.7989898732, y=-5, z=28.2010101268
** nodeYZ 164: x=19.7989898732, y=-5, z=28.2010101268
** nodeZ 140: x=19.7989898732, y=5, z=28.2010101268
*BOUNDARY
167,1,1,0
167,2,2,0
167,3,3,0
164,2,2,0
164,3,3,0
140,3,3,0

***********************************************************
** MbDPart D'Alembert element loads
*DLOAD
15,GRAV,15110936.69313,0.3436540287368,1.343416682646E-17,-0.9390963254816
16,GRAV,14780349.02087,0.3033166858294,1.268971556679E-17,-0.9528898090007
17,GRAV,14189542.8467,0.2763799740965,1.218570046219E-17,-0.9610484430654
18,GRAV,13475152.82229,0.2715444964024,1.209494916313E-17,-0.9624258862238
19,GRAV,12824357.75182,0.2936353482639,1.251009977049E-17,-0.9559175080779
20,GRAV,12433119.46767,0.3388442185004,1.334742936493E-17,-0.9408424924443
21,GRAV,12433119.43321,0.3925718593318,1.432076621487E-17,-0.919721335656
22,GRAV,12824357.66054,0.4359439087197,1.508817994891E-17,-0.8999738376476
23,GRAV,13475152.70362,0.4565530155146,1.544658727934E-17,-0.8896962088402
24,GRAV,14189542.73401,0.4520740110477,1.536859621913E-17,-0.8919804305786
25,GRAV,14780348.94167,0.4267925172773,1.492661959924E-17,-0.9043495713473
26,GRAV,15110936.66478,0.3878605652478,1.423501812334E-17,-0.9217180598891
27,GRAV,15202836.65528,0.3658604945698,1.383845569751E-17,-0.930669704306
28,GRAV,15110936.69313,0.3436540287368,1.343416682646E-17,-0.9390963254816
29,GRAV,14780349.02087,0.3033166858294,1.268971556679E-17,-0.9528898090007
30,GRAV,14189542.8467,0.2763799740965,1.218570046219E-17,-0.9610484430654
31,GRAV,13475152.82229,0.2715444964024,1.209494916313E-17,-0.9624258862238
32,GRAV,12824357.75182,0.2936353482639,1.251009977049E-17,-0.9559175080779
33,GRAV,12433119.46767,0.3388442185004,1.334742936493E-17,-0.9408424924443
34,GRAV,12433119.43321,0.3925718593318,1.432076621487E-17,-0.919721335656
35,GRAV,12824357.66054,0.4359439087197,1.508817994891E-17,-0.8999738376476
36,GRAV,13475152.70362,0.4565530155146,1.544658727934E-17,-0.8896962088402
37,GRAV,14189542.73401,0.4520740110477,1.536859621913E-17,-0.8919804305786
38,GRAV,14780348.94167,0.4267925172773,1.492661959924E-17,-0.9043495713473
39,GRAV,15110936.66478,0.3878605652478,1.423501812334E-17,-0.9217180598891
40,GRAV,14303774.07432,0.3565018440775,1.366894702819E-17,-0.9342946190412
41,GRAV,14164931.22268,0.339952142527,1.336679715516E-17,-0.9404427365828
42,GRAV,13921172.36985,0.3297732545457,1.317993880147E-17,-0.9440601678846
43,GRAV,13634283.52005,0.3290080886144,1.31659949293E-17,-0.9443271030878
44,GRAV,13380861.34635,0.3384253009132,1.333920034864E-17,-0.9409932601787
45,GRAV,13232338.17398,0.3557424488142,1.365567169805E-17,-0.9345840305247
46,GRAV,13232338.16103,0.3759354688846,1.402149104574E-17,-0.926645845636
47,GRAV,13380861.31136,0.392981307071,1.432754396991E-17,-0.9195464601056
48,GRAV,13634283.47314,0.4021477752809,1.449100289531E-17,-0.9155747740281
49,GRAV,13921172.3239,0.4014056715335,1.447764087572E-17,-0.9159003695057
50,GRAV,14164931.18962,0.3914883160333,1.430043309891E-17,-0.9201830787454
51,GRAV,14303774.06234,0.3751822894316,1.400736437737E-17,-0.926951050324
52,GRAV,14303774.07432,0.3565018440775,1.366894702819E-17,-0.9342946190412
53,GRAV,14164931.22268,0.339952142527,1.336679715516E-17,-0.9404427365828
54,GRAV,13921172.36985,0.3297732545457,1.317993880147E-17,-0.9440601678846
55,GRAV,13634283.52005,0.3290080886144,1.31659949293E-17,-0.9443271030878
56,GRAV,13380861.34635,0.3384253009132,1.333920034864E-17,-0.9409932601787
57,GRAV,13232338.17398,0.3557424488142,1.365567169805E-17,-0.9345840305247
58,GRAV,13232338.16103,0.3759354688846,1.402149104574E-17,-0.926645845636
59,GRAV,13380861.31136,0.392981307071,1.432754396991E-17,-0.9195464601056
60,GRAV,13634283.47314,0.4021477752809,1.449100289531E-17,-0.9155747740281
61,GRAV,13921172.3239,0.4014056715335,1.447764087572E-17,-0.9159003695057
62,GRAV,14164931.18962,0.3914883160333,1.430043309891E-17,-0.9201830787454
63,GRAV,14303774.06234,0.3751822894316,1.400736437737E-17,-0.926951050324
64,GRAV,14341518.6119,0.3658604923752,1.383883466823E-17,-0.9306697051688
65,GRAV,14341518.6119,0.3658604923752,1.383883466823E-17,-0.9306697051688
66,GRAV,14341518.6119,0.3658604923752,1.383883466823E-17,-0.9306697051688
67,GRAV,8176618.98349,0.4063562007922,1.457056144422E-17,-0.9137147465581
68,GRAV,12910977.36105,0.391588661843,1.430288701397E-17,-0.9201403805485
69,GRAV,8176618.98349,0.4063562007922,1.457056144422E-17,-0.9137147465581
70,GRAV,3450205.831803,0.4606818782704,1.553866951377E-17,-0.8875653255019
71,GRAV,8176619.035891,0.3246595750836,1.309053485199E-17,-0.9458309364292
72,GRAV,12910977.39424,0.339849575309,1.336557507009E-17,-0.9404798063554
73,GRAV,8176619.035891,0.3246595750836,1.309053485199E-17,-0.9458309364292
74,GRAV,3450205.955987,0.267069604286,1.203116447547E-17,-0.9636772418536
75,GRAV,3431490.06242,0.3658603692144,1.38601018472E-17,-0.9306697535852
76,GRAV,12905988.5396,0.3658604880664,1.383957869364E-17,-0.9306697068626
77,GRAV,3431490.06242,0.3658603692144,1.38601018472E-17,-0.9306697535852
78,GRAV,12905988.5396,0.3658604880664,1.383957869364E-17,-0.9306697068626
79,GRAV,5330337.547347,0.2765069246882,1.219932782412E-17,-0.9610119253159
80,GRAV,4996428.162541,0.09609751568752,8.687075366567E-18,-0.9953719241965
81,GRAV,4357961.528798,-0.07018076195663,5.253804821812E-18,-0.9975342904638
82,GRAV,3477846.839371,-0.1936507695854,2.586760442545E-18,-0.9810705272502
83,GRAV,2474459.888841,-0.2118741486203,2.194477234098E-18,-0.9772969585271
84,GRAV,1635464.973131,0.06225395969312,8.042245224793E-18,-0.998060341113
85,GRAV,1635464.606357,0.6340811018392,1.84015405991E-17,-0.7732665493156
86,GRAV,2474459.226552,0.8206836010322,2.090042743037E-17,-0.571382907512
87,GRAV,3477846.195682,0.8099085884107,2.076737157095E-17,-0.5865561170243
88,GRAV,4357961.015105,0.7307041408337,1.976273917498E-17,-0.6826942643442
89,GRAV,4996427.834545,0.6074672996662,1.795111639414E-17,-0.7943446857859
90,GRAV,5330337.434813,0.4519560536889,1.537778689202E-17,-0.8920402039897
91,GRAV,5441232.16364,0.3658604290121,1.384977608276E-17,-0.9306697300778
92,GRAV,5330337.547347,0.2765069246882,1.219932782412E-17,-0.9610119253159
93,GRAV,4996428.162541,0.09609751568752,8.687075366567E-18,-0.9953719241965
94,GRAV,4357961.528798,-0.07018076195663,5.253804821812E-18,-0.9975342904638
95,GRAV,3477846.839371,-0.1936507695854,2.586760442545E-18,-0.9810705272502
96,GRAV,2474459.888841,-0.2118741486203,2.194477234098E-18,-0.9772969585271
97,GRAV,1635464.973131,0.06225395969312,8.042245224793E-18,-0.998060341113
98,GRAV,1635464.606357,0.6340811018392,1.84015405991E-17,-0.7732665493156
99,GRAV,2474459.226552,0.8206836010322,2.090042743037E-17,-0.571382907512
100,GRAV,3477846.195682,0.8099085884107,2.076737157095E-17,-0.5865561170243
101,GRAV,4357961.015105,0.7307041408337,1.976273917498E-17,-0.6826942643442
102,GRAV,4996427.834545,0.6074672996662,1.795111639414E-17,-0.7943446857859
103,GRAV,5330337.434813,0.4519560536889,1.537778689202E-17,-0.8920402039897
104,GRAV,15140618.97264,0.351108188103,1.35703274202E-17,-0.9363348974843
105,GRAV,15140618.95377,0.38052143625,1.410318160382E-17,-0.9247720997923
106,GRAV,15082213.00152,0.3361491612941,1.329662510771E-17,-0.9418087605036
107,GRAV,15082212.96364,0.3952034636305,1.436646043856E-17,-0.9185936110895
108,GRAV,14862212.32903,0.3092855864508,1.280066845183E-17,-0.9509692035044
109,GRAV,14073541.39296,0.2734284584593,1.213016487806E-17,-0.9618923422632
110,GRAV,14699073.28557,0.2972694141864,1.257702400887E-17,-0.954793640212
111,GRAV,14305675.84799,0.2792810548162,1.224022283158E-17,-0.9602094002981
112,GRAV,13352946.66538,0.2729860658409,1.21221947155E-17,-0.9620179872833
113,GRAV,13597388.68054,0.2701282490981,1.206816698808E-17,-0.9628243500448
114,GRAV,12918621.83401,0.2876640044949,1.239829031088E-17,-0.9577313926764
115,GRAV,12469177.80424,0.329876143231,1.31826354453E-17,-0.9440242211549
116,GRAV,12730600.52839,0.2996831933889,1.262306249124E-17,-0.9540387746838
117,GRAV,12398193.42162,0.3837520217447,1.4162666962E-17,-0.9234361839385
118,GRAV,12398193.44466,0.3478326931271,1.351194778599E-17,-0.9375566210059
119,GRAV,12918621.73531,0.4415519161379,1.518614350378E-17,-0.8972357022293
120,GRAV,12469177.75843,0.4013058384277,1.447666498829E-17,-0.9159441162232
121,GRAV,12730600.44465,0.4302357185305,1.498816882276E-17,-0.902716581492
122,GRAV,13352946.54849,0.4552195894001,1.54235606561E-17,-0.8903792031637
123,GRAV,14305675.73888,0.449378192652,1.53217244443E-17,-0.893341614372
124,GRAV,13597388.56013,0.4578614731864,1.546916620932E-17,-0.8890235493909
125,GRAV,14073541.27662,0.4548100697173,1.541609746269E-17,-0.8905884574167
126,GRAV,14699073.19882,0.4325173778271,1.502719350137E-17,-0.9016255973948
127,GRAV,14862212.2573,0.4211136240898,1.482655955441E-17,-0.9070078917
128,GRAV,14968700.38704,0.3458189966977,1.347382345183E-17,-0.9383012424179
129,GRAV,14963744.03546,0.3858226789303,1.419852249589E-17,-0.922572956694
130,GRAV,14850910.20041,0.3659442189254,1.38401219779E-17,-0.9306367866333
131,GRAV,14430602.1134,0.3543894161621,1.363043726309E-17,-0.9350979316159
132,GRAV,14425632.77882,0.3773659524486,1.404667682426E-17,-0.9260642191191
133,GRAV,14563804.18713,0.3659458686895,1.384027922079E-17,-0.9306361379127
134,GRAV,14665445.64907,0.3096405602671,1.280734688619E-17,-0.9508536814029
135,GRAV,14715087.27786,0.3312714063836,1.32071387077E-17,-0.9435355082415
136,GRAV,14135810.24962,0.2863179856871,1.237242218178E-17,-0.9581346518481
137,GRAV,14334405.47346,0.3045795055827,1.271342207361E-17,-0.9524869158046
138,GRAV,13502887.00243,0.2821108599758,1.229379651969E-17,-0.9593818127751
139,GRAV,13810359.51235,0.2922741778303,1.248411509869E-17,-0.9563345674886
140,GRAV,12920141.57174,0.3018470346501,1.266328031817E-17,-0.9533563697133
141,GRAV,13259958.01877,0.2990299495024,1.26105797517E-17,-0.9542437263617
142,GRAV,12577009.1815,0.3422615746373,1.340995859131E-17,-0.9396047118479
143,GRAV,12839598.05413,0.3263477265538,1.311740935348E-17,-0.9452497878197
144,GRAV,12582852.65312,0.389297173651,1.426204402869E-17,-0.9211122138954
145,GRAV,12691834.3987,0.365942127515,1.384118309153E-17,-0.9306376090132
146,GRAV,12921137.00835,0.4278321443448,1.494583333301E-17,-0.9038582058406
147,GRAV,12846582.53208,0.404427382045,1.453200447097E-17,-0.9145701135792
148,GRAV,13499574.48423,0.4470047011704,1.528084912568E-17,-0.8945316076761
149,GRAV,13257555.07523,0.4307740971749,1.499731993278E-17,-0.9024597925687
150,GRAV,14135120.21684,0.4428569988407,1.520827313641E-17,-0.8965922588211
151,GRAV,13806311.05574,0.4375259527835,1.511532862334E-17,-0.8992057832559
152,GRAV,14664629.32598,0.4207918286698,1.482096993854E-17,-0.9071572283374
153,GRAV,14332887.31368,0.4256545661304,1.490680246371E-17,-0.9048857333014
154,GRAV,14709331.59128,0.4000617316763,1.445332355293E-17,-0.9164881946038
155,GRAV,14255287.3517,0.3340887850825,1.325915102352E-17,-0.942541608462
156,GRAV,14461942.07312,0.3400179657606,1.336786445719E-17,-0.9404189401325
157,GRAV,13957478.37777,0.3219363712052,1.303540138614E-17,-0.9467613072444
158,GRAV,14177001.94782,0.3205789564387,1.301021352768E-17,-0.9472217969877
159,GRAV,13609462.45199,0.3203973016655,1.300713814032E-17,-0.947283257049
160,GRAV,13790972.05741,0.3120601158175,1.285266637524E-17,-0.9500623580144
161,GRAV,13291382.42287,0.3316733952647,1.321523218058E-17,-0.9433942754085
162,GRAV,13388031.01849,0.3173765946432,1.295138363627E-17,-0.9482995819743
163,GRAV,13109904.05525,0.3534912310946,1.361474700767E-17,-0.9354378384154
164,GRAV,13082879.12694,0.3374442269469,1.332136637587E-17,-0.9413455230149
165,GRAV,13115735.55261,0.3782385857283,1.406306244499E-17,-0.9257081463757
166,GRAV,12978940.41208,0.3659403225585,1.384098317473E-17,-0.93063831875
167,GRAV,13292536.6312,0.399213714876,1.443889961059E-17,-0.9168579005794
168,GRAV,13089912.15628,0.3936525480919,1.433970754771E-17,-0.919259305844
169,GRAV,13605993.68944,0.4107226684371,1.464338767159E-17,-0.9117603246643
170,GRAV,13385651.08834,0.4132879995032,1.468896194343E-17,-0.9106003675964
171,GRAV,13956762.47873,0.4090284508212,1.461315663228E-17,-0.912521630658
172,GRAV,13786828.47818,0.4187633539337,1.478558204075E-17,-0.9080953988443
173,GRAV,14254464.31079,0.3972274616657,1.440297549444E-17,-0.9177201881285
174,GRAV,14175467.70309,0.4103523027154,1.463653662161E-17,-0.9119270736502
175,GRAV,14456170.1851,0.3915333174234,1.430110213134E-17,-0.9201639317792
176,GRAV,14968700.38704,0.3458189966977,1.347382345183E-17,-0.9383012424179
177,GRAV,14963744.03546,0.3858226789303,1.419852249589E-17,-0.922572956694
178,GRAV,14850910.20041,0.3659442189254,1.38401219779E-17,-0.9306367866333
179,GRAV,14430602.1134,0.3543894161621,1.363043726309E-17,-0.9350979316159
180,GRAV,14425632.77882,0.3773659524486,1.404667682426E-17,-0.9260642191191
181,GRAV,14563804.18713,0.3659458686895,1.384027922079E-17,-0.9306361379127
182,GRAV,14665445.64907,0.3096405602671,1.280734688619E-17,-0.9508536814029
183,GRAV,14715087.27786,0.3312714063836,1.32071387077E-17,-0.9435355082415
184,GRAV,14135810.24962,0.2863179856871,1.237242218178E-17,-0.9581346518481
185,GRAV,14334405.47346,0.3045795055827,1.271342207361E-17,-0.9524869158046
186,GRAV,13502887.00243,0.2821108599758,1.229379651969E-17,-0.9593818127751
187,GRAV,13810359.51235,0.2922741778303,1.248411509869E-17,-0.9563345674886
188,GRAV,12920141.57174,0.3018470346501,1.266328031817E-17,-0.9533563697133
189,GRAV,13259958.01877,0.2990299495024,1.26105797517E-17,-0.9542437263617
190,GRAV,12577009.1815,0.3422615746373,1.340995859131E-17,-0.9396047118479
191,GRAV,12839598.05413,0.3263477265538,1.311740935348E-17,-0.9452497878197
192,GRAV,12582852.65312,0.389297173651,1.426204402869E-17,-0.9211122138954
193,GRAV,12691834.3987,0.365942127515,1.384118309153E-17,-0.9306376090132
194,GRAV,12921137.00835,0.4278321443448,1.494583333301E-17,-0.9038582058406
195,GRAV,12846582.53208,0.404427382045,1.453200447097E-17,-0.9145701135792
196,GRAV,13499574.48423,0.4470047011704,1.528084912568E-17,-0.8945316076761
197,GRAV,13257555.07523,0.4307740971749,1.499731993278E-17,-0.9024597925687
198,GRAV,14135120.21684,0.4428569988407,1.520827313641E-17,-0.8965922588211
199,GRAV,13806311.05574,0.4375259527835,1.511532862334E-17,-0.8992057832559
200,GRAV,14664629.32598,0.4207918286698,1.482096993854E-17,-0.9071572283374
201,GRAV,14332887.31368,0.4256545661304,1.490680246371E-17,-0.9048857333014
202,GRAV,14709331.59128,0.4000617316763,1.445332355293E-17,-0.9164881946038
203,GRAV,14255287.3517,0.3340887850825,1.325915102352E-17,-0.942541608462
204,GRAV,14461942.07312,0.3400179657606,1.336786445719E-17,-0.9404189401325
205,GRAV,13957478.37777,0.3219363712052,1.303540138614E-17,-0.9467613072444
206,GRAV,14177001.94782,0.3205789564387,1.301021352768E-17,-0.9472217969877
207,GRAV,13609462.45199,0.3203973016655,1.300713814032E-17,-0.947283257049
208,GRAV,13790972.05741,0.3120601158175,1.285266637524E-17,-0.9500623580144
209,GRAV,13291382.42287,0.3316733952647,1.321523218058E-17,-0.9433942754085
210,GRAV,13388031.01849,0.3173765946432,1.295138363627E-17,-0.9482995819743
211,GRAV,13109904.05525,0.3534912310946,1.361474700767E-17,-0.9354378384154
212,GRAV,13082879.12694,0.3374442269469,1.332136637587E-17,-0.9413455230149
213,GRAV,13115735.55261,0.3782385857283,1.406306244499E-17,-0.9257081463757
214,GRAV,12978940.41208,0.3659403225585,1.384098317473E-17,-0.93063831875
215,GRAV,13292536.6312,0.399213714876,1.443889961059E-17,-0.9168579005794
216,GRAV,13089912.15628,0.3936525480919,1.433970754771E-17,-0.919259305844
217,GRAV,13605993.68944,0.4107226684371,1.464338767159E-17,-0.9117603246643
218,GRAV,13385651.08834,0.4132879995032,1.468896194343E-17,-0.9106003675964
219,GRAV,13956762.47873,0.4090284508212,1.461315663228E-17,-0.912521630658
220,GRAV,13786828.47818,0.4187633539337,1.478558204075E-17,-0.9080953988443
221,GRAV,14254464.31079,0.3972274616657,1.440297549444E-17,-0.9177201881285
222,GRAV,14175467.70309,0.4103523027154,1.463653662161E-17,-0.9119270736502
223,GRAV,14456170.1851,0.3915333174234,1.430110213134E-17,-0.9201639317792
224,GRAV,14310090.49414,0.3563957669524,1.366701410559E-17,-0.9343350883374
225,GRAV,14310090.48203,0.3752875281257,1.400925967931E-17,-0.92690844814
226,GRAV,14335082.27476,0.3690745047619,1.38970201155E-17,-0.9293998116714
227,GRAV,14335082.27888,0.3626421106633,1.378049003721E-17,-0.9319284841519
228,GRAV,14311551.86509,0.3567933581893,1.367424669979E-17,-0.9341833329449
229,GRAV,14311551.85348,0.3748930311828,1.400214270223E-17,-0.927068074723
230,GRAV,14336584.38004,0.3630373407088,1.378765928558E-17,-0.9317745914389
231,GRAV,14336584.37642,0.3686802814065,1.388988752459E-17,-0.9295562651621
232,GRAV,14163741.18723,0.3392561189661,1.335403889419E-17,-0.9406940447053
233,GRAV,14239863.98877,0.3450808635392,1.346065565183E-17,-0.9385729580693
234,GRAV,14293749.05468,0.3511704505524,1.357183836358E-17,-0.9363115478615
235,GRAV,13920953.67183,0.3293065119501,1.317134540202E-17,-0.9442230780845
236,GRAV,14048253.89898,0.3330160113109,1.323953302859E-17,-0.9429211717904
237,GRAV,13632845.84878,0.328567424139,1.315787966595E-17,-0.9444805174246
238,GRAV,13776590.6224,0.3276084203437,1.314013829724E-17,-0.9448135916253
239,GRAV,13376387.63547,0.3380914891264,1.333308001524E-17,-0.9411132476914
240,GRAV,13495475.78655,0.3321088223079,1.322313178657E-17,-0.9432410774268
241,GRAV,13226057.26994,0.3556183453255,1.365341642497E-17,-0.9346312601598
242,GRAV,13284284.22117,0.3461217264718,1.348016992251E-17,-0.9381896132788
243,GRAV,13226057.25683,0.3760585117976,1.402371310865E-17,-0.926595918243
244,GRAV,13206138.421,0.3658604890448,1.383940975346E-17,-0.930669706478
245,GRAV,13376387.60005,0.3933074651757,1.433337973592E-17,-0.9194070033653
246,GRAV,13284284.19596,0.3854360169772,1.419239266366E-17,-0.9227345646592
247,GRAV,13632845.80131,0.4025749441471,1.449860941234E-17,-0.9153870298103
248,GRAV,13495475.74356,0.3991375581258,1.443743298166E-17,-0.9168910566111
249,GRAV,13920953.62529,0.4018584038037,1.448570480114E-17,-0.915701820077
250,GRAV,13776590.57372,0.403504036371,1.451507303357E-17,-0.9149778645587
251,GRAV,14163741.15329,0.3921691471109,1.431261811355E-17,-0.9198931242564
252,GRAV,14048253.85713,0.3982553811647,1.442141783896E-17,-0.9172745779609
253,GRAV,14239863.96223,0.3864592925309,1.42102725902E-17,-0.9223064649109
254,GRAV,14293749.03589,0.3804599367515,1.410245046037E-17,-0.924797402963
255,GRAV,14163741.18723,0.3392561189661,1.335403889419E-17,-0.9406940447053
256,GRAV,14239863.98877,0.3450808635392,1.346065565183E-17,-0.9385729580693
257,GRAV,14295176.38234,0.351569867711,1.357912129323E-17,-0.9361616463612
258,GRAV,13920953.67183,0.3293065119501,1.317134540202E-17,-0.9442230780845
259,GRAV,14048253.89898,0.3330160113109,1.323953302859E-17,-0.9429211717904
260,GRAV,13632845.84878,0.328567424139,1.315787966595E-17,-0.9444805174246
261,GRAV,13776590.6224,0.3276084203437,1.314013829724E-17,-0.9448135916253
262,GRAV,13376387.63547,0.3380914891264,1.333308001524E-17,-0.9411132476914
263,GRAV,13495475.78655,0.3321088223079,1.322313178657E-17,-0.9432410774268
264,GRAV,13226057.26994,0.3556183453255,1.365341642497E-17,-0.9346312601598
265,GRAV,13284284.22117,0.3461217264718,1.348016992251E-17,-0.9381896132788
266,GRAV,13226057.25683,0.3760585117976,1.402371310865E-17,-0.926595918243
267,GRAV,13206138.421,0.3658604890448,1.383940975346E-17,-0.930669706478
268,GRAV,13376387.60005,0.3933074651757,1.433337973592E-17,-0.9194070033653
269,GRAV,13284284.19596,0.3854360169772,1.419239266366E-17,-0.9227345646592
270,GRAV,13632845.80131,0.4025749441471,1.449860941234E-17,-0.9153870298103
271,GRAV,13495475.74356,0.3991375581258,1.443743298166E-17,-0.9168910566111
272,GRAV,13920953.62529,0.4018584038037,1.448570480114E-17,-0.915701820077
273,GRAV,13776590.57372,0.403504036371,1.451507303357E-17,-0.9149778645587
274,GRAV,14163741.15329,0.3921691471109,1.431261811355E-17,-0.9198931242564
275,GRAV,14048253.85713,0.3982553811647,1.442141783896E-17,-0.9172745779609
276,GRAV,14239863.96223,0.3864592925309,1.42102725902E-17,-0.9223064649109
277,GRAV,14295176.36406,0.3800653651832,1.409534938819E-17,-0.9249596305722
278,GRAV,14336584.38004,0.3630373407088,1.378765928558E-17,-0.9317745914389
279,GRAV,14336584.37642,0.3686802814065,1.388988752459E-17,-0.9295562651621
280,GRAV,14318205.66139,0.374244782334,1.399044304443E-17,-0.927329953628
281,GRAV,14319673.88062,0.3738504365965,1.398332533402E-17,-0.9274890031998
282,GRAV,14318205.67216,0.3574464028613,1.368612144268E-17,-0.9339336534688
283,GRAV,14319673.89089,0.3578434904327,1.369334143982E-17,-0.9337815785048
284,GRAV,6599421.592125,0.4159297315669,1.474308329956E-17,-0.9093967552167
285,GRAV,9754426.553922,0.3998537461986,1.445292919773E-17,-0.9165789554921
286,GRAV,6599421.657049,0.3147084086448,1.290934476454E-17,-0.9491883993856
287,GRAV,9754426.597846,0.331371793466,1.321230132918E-17,-0.9435002567542
288,GRAV,6590741.969965,0.3826926125954,1.415044796755E-17,-0.923875729882
289,GRAV,9748556.408287,0.3544123949372,1.363404886689E-17,-0.9350892226493
290,GRAV,6590741.969965,0.3826926125954,1.415044796755E-17,-0.923875729882
291,GRAV,9748556.408287,0.3544123949372,1.363404886689E-17,-0.9350892226493
292,GRAV,3439820.740044,0.4297065808885,1.499923298334E-17,-0.9029685788227
293,GRAV,3431490.06242,0.3658603692144,1.38601018472E-17,-0.9306697535852
294,GRAV,3431490.06242,0.3658603692144,1.38601018472E-17,-0.9306697535852
295,GRAV,3439820.823084,0.3002420435334,1.265383665122E-17,-0.9538630485006
296,GRAV,12908206.02793,0.3830477018465,1.414970558774E-17,-0.9237285630044
297,GRAV,12905988.5396,0.3658604880664,1.383957869364E-17,-0.9306697068626
298,GRAV,12905988.5396,0.3658604880664,1.383957869364E-17,-0.9306697068626
299,GRAV,12908206.05005,0.3485475720444,1.352469680046E-17,-0.9372910914022
300,GRAV,5361953.216996,0.3070076530833,1.276978177381E-17,-0.9517070457595
301,GRAV,5361953.142416,0.4232840718443,1.487626038467E-17,-0.90599701684
302,GRAV,5304204.011924,0.2453883390449,1.161005453519E-17,-0.9694248619985
303,GRAV,5304203.861139,0.4804730834816,1.586888011035E-17,-0.8770094731813
304,GRAV,4914563.763716,0.06535394455212,8.066105459764E-18,-0.9978621457554
305,GRAV,5082890.668045,0.1257360390946,9.279622462259E-18,-0.992063732062
306,GRAV,4227586.775852,-0.09671790104573,4.688888131595E-18,-0.9953118343601
307,GRAV,4491246.284681,-0.04515601884939,5.782153879322E-18,-0.9989799467265
308,GRAV,3643471.318462,-0.1794932267805,2.897328424806E-18,-0.9837592091259
309,GRAV,2644699.452506,-0.2244191691521,1.912847379885E-18,-0.9744927072673
310,GRAV,3313016.720732,-0.2091740153074,2.244594841961E-18,-0.9778784338149
311,GRAV,1548168.953924,0.1558376962756,9.918679966866E-18,-0.9877826746909
312,GRAV,2304689.578432,-0.1974352272672,2.517209007878E-18,-0.9803159342956
313,GRAV,1735739.038806,-0.02168225830609,6.308453118548E-18,-0.9997649122042
314,GRAV,1548168.695621,0.5585513850901,1.721429397101E-17,-0.8294699212231
315,GRAV,2304688.930867,0.8121659619938,2.080727531032E-17,-0.5834264736698
316,GRAV,1735738.578026,0.6967078137531,1.932290155096E-17,-0.7173550182827
317,GRAV,3313016.061189,0.8191023508953,2.087298253327E-17,-0.5736473993298
318,GRAV,2644698.777503,0.827960572788,2.09778952411E-17,-0.5607863139454
319,GRAV,4491245.798162,0.7133631951188,1.952358592771E-17,-0.7007945147116
320,GRAV,3643470.689329,0.8013721011633,2.066681152879E-17,-0.5981661604245
321,GRAV,4227586.233645,0.7486236095743,2.000320414913E-17,-0.6629952422061
322,GRAV,4914563.400473,0.6316763958879,1.832567610759E-17,-0.775232178691
323,GRAV,5082890.374425,0.5835103916477,1.757272173089E-17,-0.8121056722122
324,GRAV,5159455.620846,0.2818836048477,1.230101844665E-17,-0.9594486090032
325,GRAV,5034469.849277,0.4430676594195,1.522421637995E-17,-0.8964881757037
326,GRAV,4894031.170165,0.3596050295332,1.373826162399E-17,-0.9331046151072
327,GRAV,4736150.621033,0.1267028861927,9.30024341868E-18,-0.9919407132639
328,GRAV,4766509.927846,0.2246458138954,1.121527746389E-17,-0.9744404847395
329,GRAV,4247438.392624,-0.03917564719703,5.909176070685E-18,-0.9992323396822
330,GRAV,4328738.082517,0.0735960894246,8.235938589365E-18,-0.9972881306931
331,GRAV,3398980.577457,-0.1103509095357,4.401995454592E-18,-0.993892688757
332,GRAV,3760367.921152,-0.02488449057836,6.211740491378E-18,-0.9996903331175
333,GRAV,2514211.145159,-0.1453003964791,3.656456743984E-18,-0.9893875857231
334,GRAV,2949803.302898,-0.06301905184392,5.41613813452E-18,-0.9980123241247
335,GRAV,1894671.260383,0.1479315571564,9.751425246266E-18,-0.9889976008046
336,GRAV,2309904.163268,0.03943664865176,7.559404556085E-18,-0.9992220727862
337,GRAV,2021259.250607,0.6175957963789,1.81369403374E-17,-0.7864956657828
338,GRAV,2186945.463461,0.4310893702152,1.503948641573E-17,-0.9023092346238
339,GRAV,2550400.584827,0.7492189660812,2.002597167139E-17,-0.6623223843902
340,GRAV,3558755.211481,0.742079120221,1.992071772232E-17,-0.6703122998513
341,GRAV,3161692.341202,0.681882789589,1.908490510565E-17,-0.7314614557599
342,GRAV,4169244.161987,0.6922053323032,1.922634015638E-17,-0.721700615166
343,GRAV,4845591.449051,0.5935721880086,1.773333557143E-17,-0.804780751275
344,GRAV,4373611.201379,0.6166040202224,1.80960441391E-17,-0.7872734482031
345,GRAV,4742800.567506,0.5102043674486,1.637431351884E-17,-0.860053198027
346,GRAV,3879515.94613,0.4655461208263,1.561949296816E-17,-0.8850236208054
347,GRAV,4014663.499757,0.3295490134461,1.319281640329E-17,-0.9441384685186
348,GRAV,3327010.609063,0.522544599106,1.658911311241E-17,-0.8526119527342
349,GRAV,3036628.605769,0.232099125208,1.136969183507E-17,-0.9726921383859
350,GRAV,2855561.984858,0.4159825817197,1.476307825074E-17,-0.909372581347
351,GRAV,3633559.917331,0.2125686750801,1.098907107468E-17,-0.9771461294887
352,GRAV,4259445.465415,0.5259782083656,1.663988098087E-17,-0.8504980448681
353,GRAV,4477853.914916,0.3073634831242,1.277992857908E-17,-0.9515921864127
354,GRAV,2777721.923957,0.09738805944604,8.72835315424E-18,-0.9952464849862
355,GRAV,3851961.49907,0.101610440023,8.803512026829E-18,-0.9948242651234
356,GRAV,5159455.620846,0.2818836048477,1.230101844665E-17,-0.9594486090032
357,GRAV,5034469.849277,0.4430676594195,1.522421637995E-17,-0.8964881757037
358,GRAV,4894031.170165,0.3596050295332,1.373826162399E-17,-0.9331046151072
359,GRAV,4736150.621033,0.1267028861927,9.30024341868E-18,-0.9919407132639
360,GRAV,4766509.927846,0.2246458138954,1.121527746389E-17,-0.9744404847395
361,GRAV,4247438.392624,-0.03917564719703,5.909176070685E-18,-0.9992323396822
362,GRAV,4328738.082517,0.0735960894246,8.235938589365E-18,-0.9972881306931
363,GRAV,3398980.577457,-0.1103509095357,4.401995454592E-18,-0.993892688757
364,GRAV,3760367.921152,-0.02488449057836,6.211740491378E-18,-0.9996903331175
365,GRAV,2514211.145159,-0.1453003964791,3.656456743984E-18,-0.9893875857231
366,GRAV,2949803.302898,-0.06301905184392,5.41613813452E-18,-0.9980123241247
367,GRAV,1894671.260383,0.1479315571564,9.751425246266E-18,-0.9889976008046
368,GRAV,2309904.163268,0.03943664865176,7.559404556085E-18,-0.9992220727862
369,GRAV,2021259.250607,0.6175957963789,1.81369403374E-17,-0.7864956657828
370,GRAV,2186945.463461,0.4310893702152,1.503948641573E-17,-0.9023092346238
371,GRAV,2550400.584827,0.7492189660812,2.002597167139E-17,-0.6623223843902
372,GRAV,3558755.211481,0.742079120221,1.992071772232E-17,-0.6703122998513
373,GRAV,3161692.341202,0.681882789589,1.908490510565E-17,-0.7314614557599
374,GRAV,4169244.161987,0.6922053323032,1.922634015638E-17,-0.721700615166
375,GRAV,4845591.449051,0.5935721880086,1.773333557143E-17,-0.804780751275
376,GRAV,4373611.201379,0.6166040202224,1.80960441391E-17,-0.7872734482031
377,GRAV,4742800.567506,0.5102043674486,1.637431351884E-17,-0.860053198027
378,GRAV,3879515.94613,0.4655461208263,1.561949296816E-17,-0.8850236208054
379,GRAV,4014663.499757,0.3295490134461,1.319281640329E-17,-0.9441384685186
380,GRAV,3327010.609063,0.522544599106,1.658911311241E-17,-0.8526119527342
381,GRAV,3036628.605769,0.232099125208,1.136969183507E-17,-0.9726921383859
382,GRAV,2855561.984858,0.4159825817197,1.476307825074E-17,-0.909372581347
383,GRAV,3633559.917331,0.2125686750801,1.098907107468E-17,-0.9771461294887
384,GRAV,4259445.465415,0.5259782083656,1.663988098087E-17,-0.8504980448681
385,GRAV,4477853.914916,0.3073634831242,1.277992857908E-17,-0.9515921864127
386,GRAV,2777721.923957,0.09738805944604,8.72835315424E-18,-0.9952464849862
387,GRAV,3851961.49907,0.101610440023,8.803512026829E-18,-0.9948242651234
388,GRAV,14250358.63806,0.2824897171616,1.230053833437E-17,-0.9592703267057
389,GRAV,14075992.26631,0.2781460498582,1.221898730024E-17,-0.9605387940881
390,GRAV,13200679.78738,0.3322340442019,1.322559346221E-17,-0.9431969782995
391,GRAV,13038425.00332,0.3574852782352,1.368748611623E-17,-0.9339187736871
392,GRAV,13202416.33612,0.398491644529,1.442607027713E-17,-0.9171719627423
393,GRAV,13668048.66801,0.3156434747918,1.2919148574E-17,-0.9488778619092
394,GRAV,14034381.67169,0.4111286545624,1.465037047378E-17,-0.911577330454
395,GRAV,14515269.81306,0.3882591486377,1.424242479419E-17,-0.9215502338447
396,GRAV,13074740.7704,0.3350061857317,1.327661288433E-17,-0.942215928289
397,GRAV,14456273.63898,0.3949936740438,1.436298730755E-17,-0.9186838397759
398,GRAV,13013060.48057,0.3427369375304,1.341840575979E-17,-0.9394314193448
399,GRAV,13769116.37686,0.310280852505,1.281966041903E-17,-0.9506449350671
400,GRAV,13080887.1993,0.3958368573628,1.437874899049E-17,-0.9183208493512
401,GRAV,12954897.42041,0.3643819709765,1.381275653721E-17,-0.9312495794508
402,GRAV,14264650.63461,0.4086144294868,1.460566005893E-17,-0.9127070986988
403,GRAV,13886620.28119,0.3110556327421,1.283398175118E-17,-0.9503917052139
404,GRAV,13022734.38056,0.3885969293536,1.424923726781E-17,-0.9214078502471
405,GRAV,12959609.92364,0.3728438979432,1.396585686924E-17,-0.9278940821918
406,GRAV,14163188.16731,0.4124962524701,1.467454476139E-17,-0.910959297498
407,GRAV,14329684.41464,0.3980426239464,1.441748774417E-17,-0.9173669219685
408,GRAV,14420154.0101,0.3657881755519,1.383748806514E-17,-0.9306981307741
409,GRAV,14405963.69905,0.3761241575983,1.402430260234E-17,-0.9265692732176
410,GRAV,14407242.71195,0.3696454769604,1.39073137431E-17,-0.9291728694719
411,GRAV,13742844.56948,0.4351488996397,1.507376111341E-17,-0.9003585036764
412,GRAV,14802487.0879,0.3715679963906,1.394188841338E-17,-0.9284057432278
413,GRAV,13511216.0568,0.3248343016489,1.308912574147E-17,-0.9457709429202
414,GRAV,13511216.0568,0.3248343016489,1.308912574147E-17,-0.9457709429202
415,GRAV,13400806.82995,0.4022609613353,1.449314093629E-17,-0.9155250509874
416,GRAV,13400806.82995,0.4022609613353,1.449314093629E-17,-0.9155250509874
417,GRAV,14640676.28724,0.4021314564473,1.449022859954E-17,-0.9155819415735
418,GRAV,14257369.25401,0.4252650000791,1.489998165535E-17,-0.9050688811951
419,GRAV,14489115.3965,0.3736162512648,1.397901986256E-17,-0.9275833637959
420,GRAV,14388774.57275,0.3804612881398,1.410243044867E-17,-0.9247968470032
421,GRAV,13722390.56223,0.3215494270772,1.302837092946E-17,-0.946892795382
422,GRAV,13722390.56223,0.3215494270772,1.302837092946E-17,-0.946892795382
423,GRAV,13839482.45893,0.4087362647766,1.46080292198E-17,-0.9126525438832
424,GRAV,13839482.45893,0.4087362647766,1.46080292198E-17,-0.9126525438832
425,GRAV,14391428.91888,0.3509405025848,1.35675989823E-17,-0.9363977593125
426,GRAV,14166838.74795,0.3239057466556,1.307166274487E-17,-0.9460893548093
427,GRAV,14166838.74795,0.3239057466556,1.307166274487E-17,-0.9460893548093
428,GRAV,14387705.78602,0.3807552685538,1.410772032479E-17,-0.9246758488619
429,GRAV,14135001.19277,0.3160394312568,1.292624979271E-17,-0.9487460555338
430,GRAV,14042842.84051,0.4047336087314,1.453681471788E-17,-0.9144346373379
431,GRAV,13512363.68809,0.4422245600128,1.519755425493E-17,-0.8969043642003
432,GRAV,14042842.84051,0.4047336087314,1.453681471788E-17,-0.9144346373379
433,GRAV,14043382.16083,0.3263722266003,1.311722053935E-17,-0.9452413288171
434,GRAV,14043382.16083,0.3263722266003,1.311722053935E-17,-0.9452413288171
435,GRAV,14890175.53227,0.3847879083327,1.417997762121E-17,-0.9230050192718
436,GRAV,14607013.75247,0.4177488447773,1.476727044676E-17,-0.9085625474821
437,GRAV,14108475.25413,0.4382042364969,1.512704054547E-17,-0.8988754347051
438,GRAV,14359278.65075,0.3443385184468,1.344702229927E-17,-0.9388455595644
439,GRAV,13223114.79922,0.303705362292,1.269771566651E-17,-0.9527660011331
440,GRAV,12908228.33089,0.3241899319573,1.307756779254E-17,-0.9459920126605
441,GRAV,13331411.04215,0.430035321362,1.498431074978E-17,-0.9028120637104
442,GRAV,14492629.98322,0.3715269974225,1.394128619286E-17,-0.9284221508485
443,GRAV,13382320.26938,0.3223960255522,1.304418671074E-17,-0.9466048820433
444,GRAV,13382320.26938,0.3223960255522,1.304418671074E-17,-0.9466048820433
445,GRAV,13446584.78185,0.4107942670581,1.464474079922E-17,-0.911728068095
446,GRAV,13446584.78185,0.4107942670581,1.464474079922E-17,-0.911728068095
447,GRAV,12845326.91352,0.3320005131109,1.322149962828E-17,-0.9432792053757
448,GRAV,13222070.9866,0.426103180582,1.491525862599E-17,-0.9046745710463
449,GRAV,13335752.17262,0.3000411889444,1.262939511371E-17,-0.953926247116
450,GRAV,14698842.29745,0.3954751009194,1.437147945858E-17,-0.9184766978823
451,GRAV,13862149.8729,0.4341303869355,1.505586065834E-17,-0.9008500469774
452,GRAV,12734790.97066,0.3616378605898,1.376310694602E-17,-0.9323186460583
453,GRAV,12914295.92361,0.4063202786943,1.45656185441E-17,-0.9137307213407
454,GRAV,14357973.02057,0.4213436093739,1.483084271969E-17,-0.906901076656
455,GRAV,12854973.85423,0.3990702500512,1.443658686093E-17,-0.9169203539698
456,GRAV,12739165.43697,0.3702568279635,1.391924017188E-17,-0.9289294275382
457,GRAV,13747253.59877,0.4149735857327,1.471861055026E-17,-0.9098334590155
458,GRAV,13747253.59877,0.4149735857327,1.471861055026E-17,-0.9098334590155
459,GRAV,14287915.4979,0.3920335190158,1.431013230342E-17,-0.9199509334568
460,GRAV,14574626.55751,0.3754607471737,1.401226225782E-17,-0.9268382962156
461,GRAV,14176037.58392,0.307105490504,1.276047526385E-17,-0.9516754791957
462,GRAV,13822974.60808,0.3161757682255,1.292892768116E-17,-0.9487006290643
463,GRAV,13822974.60808,0.3161757682255,1.292892768116E-17,-0.9487006290643
464,GRAV,13221409.3939,0.2933248496181,1.250407079167E-17,-0.9560128307698
465,GRAV,13219601.94385,0.4361772651202,1.509204072041E-17,-0.8998607633363
466,GRAV,14418457.43399,0.3722714935255,1.395477009654E-17,-0.9281238791822
467,GRAV,13814369.4859,0.4432843658272,1.521588323628E-17,-0.8963810411946
468,GRAV,14171498.66798,0.406162833042,1.456216150347E-17,-0.9138007184585
469,GRAV,14171498.66798,0.406162833042,1.456216150347E-17,-0.9138007184585
470,GRAV,14788752.41852,0.4025640038047,1.449786457597E-17,-0.9153918411482
471,GRAV,14172652.589,0.3249066382206,1.309012886391E-17,-0.9457460951229
472,GRAV,14936077.67434,0.3676409753041,1.387081063242E-17,-0.92996780228
473,GRAV,14172652.589,0.3249066382206,1.309012886391E-17,-0.9457460951229
474,GRAV,14414813.56128,0.3890201715837,1.425611129873E-17,-0.9212292364558
475,GRAV,12770817.41275,0.4078948987713,1.459367270904E-17,-0.9130288886757
476,GRAV,14383676.31083,0.4303334103339,1.498901776706E-17,-0.9026700149835
477,GRAV,12968387.99645,0.305899025751,1.273867378671E-17,-0.9520639611101
478,GRAV,12649015.28048,0.3439394315518,1.344062464782E-17,-0.9389918356534
479,GRAV,13517364.4545,0.2873648051849,1.239235460749E-17,-0.9578212091727
480,GRAV,12969914.2313,0.4238089959407,1.487501218615E-17,-0.9057515856788
481,GRAV,12657777.93128,0.3876870870651,1.423313795153E-17,-0.921791040596
482,GRAV,14457545.57399,0.3443853977697,1.344783442969E-17,-0.9388283644006
483,GRAV,14296165.37376,0.322473849764,1.304516569374E-17,-0.9465783729932
484,GRAV,14296165.37376,0.322473849764,1.304516569374E-17,-0.9465783729932
485,GRAV,14318302.48105,0.3394652552013,1.335779986697E-17,-0.940618594602
486,GRAV,14419145.96626,0.3425552272189,1.341436033152E-17,-0.9394976936135
487,GRAV,14287915.4979,0.3920335190158,1.431013230342E-17,-0.9199509334568
488,GRAV,14662464.50547,0.3036547137888,1.269606060163E-17,-0.9527821444558
489,GRAV,14288533.83468,0.3394069568549,1.335674507925E-17,-0.9406396321857
490,GRAV,14414813.56128,0.3890201715837,1.425611129873E-17,-0.9212292364558
491,GRAV,12572102.08166,0.3966218749975,1.439306499323E-17,-0.917982074048
492,GRAV,13401791.09459,0.4483438992905,1.530419657119E-17,-0.8938611457989
493,GRAV,13584875.78667,0.4504280721681,1.534032114507E-17,-0.8928127193331
494,GRAV,12966366.70463,0.2953220738225,1.254153572944E-17,-0.9553977562844
495,GRAV,14235918.48704,0.4431754772732,1.521377892417E-17,-0.8964348812622
496,GRAV,14061322.02313,0.4471917466446,1.52838199011E-17,-0.894438115094
497,GRAV,14492479.93334,0.3535028527815,1.361426057478E-17,-0.9354334466307
498,GRAV,12826890.37051,0.425557335185,1.490587726884E-17,-0.904931463963
499,GRAV,14978754.90365,0.3918852254023,1.430716884484E-17,-0.9200141140827
500,GRAV,12967087.07635,0.434090525901,1.505563999086E-17,-0.9008692553989
501,GRAV,13404270.95543,0.2806051743099,1.226556296317E-17,-0.9598232838135
502,GRAV,15022858.41826,0.3807892634719,1.410804999385E-17,-0.9246618499887
503,GRAV,14755186.83415,0.4180229024669,1.477204650197E-17,-0.908436488156
504,GRAV,14632139.80083,0.4266087879084,1.49234538223E-17,-0.9044362565042
505,GRAV,15023323.74463,0.3526187956494,1.359791759339E-17,-0.9357670569937
506,GRAV,14389452.20929,0.3092273645001,1.279979927346E-17,-0.9509881371733
507,GRAV,14894237.8395,0.3486486266062,1.352555079121E-17,-0.9372535063501
508,GRAV,14505419.46474,0.367693815265,1.387195780284E-17,-0.929946911504
509,GRAV,14301636.60075,0.3016797824631,1.265944715753E-17,-0.9534093081426
510,GRAV,12765590.85207,0.3228325395668,1.305259401389E-17,-0.9464561011462
511,GRAV,12601819.91773,0.3659221547841,1.384087527094E-17,-0.9306454623745
512,GRAV,13310351.55033,0.3331181398552,1.32417891217E-17,-0.9428850963397
513,GRAV,13611908.67186,0.4088993601089,1.461103980197E-17,-0.9125794832794
514,GRAV,13611908.67186,0.4088993601089,1.461103980197E-17,-0.9125794832794
515,GRAV,13310351.55033,0.3331181398552,1.32417891217E-17,-0.9428850963397
516,GRAV,14420306.45627,0.3615766746527,1.376111574471E-17,-0.9323423772129
517,GRAV,14231172.7791,0.3963083563907,1.438657702494E-17,-0.9181174688758
518,GRAV,13135797.0924,0.3539637768971,1.362334061047E-17,-0.9352591323504
519,GRAV,13135797.0924,0.3539637768971,1.362334061047E-17,-0.9352591323504
520,GRAV,13614515.88077,0.3222232304368,1.30408730794E-17,-0.9466637152478
521,GRAV,13311222.79754,0.397896039925,1.441538446448E-17,-0.9174305103996
522,GRAV,13311222.79754,0.397896039925,1.441538446448E-17,-0.9174305103996
523,GRAV,13614515.88077,0.3222232304368,1.30408730794E-17,-0.9466637152478
524,GRAV,14406574.29673,0.3574064925815,1.368535453661E-17,-0.9339489274369
525,GRAV,14785531.181,0.3126461112455,1.286306705863E-17,-0.9498696800736
526,GRAV,14231172.7791,0.3963083563907,1.438657702494E-17,-0.9181174688758
527,GRAV,14231790.25629,0.335028213482,1.327642091039E-17,-0.9422080960016
528,GRAV,14231790.25629,0.335028213482,1.327642091039E-17,-0.9422080960016
529,GRAV,14354905.07294,0.3325275797743,1.323040689842E-17,-0.9430935312521
530,GRAV,13140170.31131,0.3777526290197,1.405429462235E-17,-0.9259065564455
531,GRAV,13140170.31131,0.3777526290197,1.405429462235E-17,-0.9259065564455
532,GRAV,12519339.25425,0.3835489294026,1.415894323314E-17,-0.9235205567577
533,GRAV,12826134.07506,0.3043354825699,1.270966816135E-17,-0.9525649132993
534,GRAV,13948179.9079,0.3235436700453,1.30650857575E-17,-0.9462132389549
535,GRAV,13948179.9079,0.3235436700453,1.30650857575E-17,-0.9462132389549
536,GRAV,13587348.70323,0.2783626655074,1.222330686274E-17,-0.9604760415813
537,GRAV,12567713.85545,0.3347456952892,1.327212396743E-17,-0.9423085054722
538,GRAV,12514961.24488,0.3480951779895,1.351666943615E-17,-0.9374591975443
539,GRAV,14978876.29489,0.3413416795982,1.339188906855E-17,-0.9399392840865
540,GRAV,14403627.59895,0.3548356341829,1.363857491082E-17,-0.9349286992675
541,GRAV,13947642.10366,0.4074670864788,1.458544157224E-17,-0.9132198932549
542,GRAV,13947642.10366,0.4074670864788,1.458544157224E-17,-0.9132198932549
543,GRAV,14490981.11717,0.3365251403948,1.330378661033E-17,-0.9416744819109
544,GRAV,14805983.84783,0.3638031393506,1.38013359496E-17,-0.9314758589457
545,GRAV,14549614.14925,0.3452249587441,1.34631471652E-17,-0.9385199666817
546,GRAV,14894237.8395,0.3486486266062,1.352555079121E-17,-0.9372535063501
547,GRAV,14732945.44218,0.3378458188528,1.332791297556E-17,-0.9412014676379
548,GRAV,14732945.44218,0.3378458188528,1.332791297556E-17,-0.9412014676379
549,GRAV,14360680.85641,0.333330534029,1.324516621329E-17,-0.9428100312809
550,GRAV,14485163.86017,0.3357316440992,1.328922148478E-17,-0.9419576758806
551,GRAV,14389452.20929,0.3092273645001,1.279979927346E-17,-0.9509881371733
552,GRAV,14399900.08248,0.3769015390338,1.40383191988E-17,-0.9262533292107
553,GRAV,14301636.60075,0.3016797824631,1.265944715753E-17,-0.9534093081426
554,GRAV,14427691.54037,0.2963391786958,1.255978118126E-17,-0.9550827666595
555,GRAV,14407675.01846,0.357702503244,1.369073693876E-17,-0.9338355953662
556,GRAV,14404715.75354,0.3551322116768,1.364397389207E-17,-0.9348160847084
557,GRAV,14590654.87045,0.3637727629734,1.380088075511E-17,-0.931487722366
558,GRAV,14590654.87045,0.3637727629734,1.380088075511E-17,-0.931487722366
559,GRAV,14818916.74311,0.3304913124105,1.31927385405E-17,-0.9438090338735
560,GRAV,14123151.4057,0.2877972501596,1.24001536053E-17,-0.9576913609303
561,GRAV,14637971.57655,0.3129463919153,1.286870082929E-17,-0.9497707911845
562,GRAV,14400987.90566,0.3766075957302,1.403302040261E-17,-0.9263728832594
563,GRAV,14805983.84783,0.3638031393506,1.38013359496E-17,-0.9314758589457
564,GRAV,14123151.4057,0.2877972501596,1.24001536053E-17,-0.9576913609303
565,GRAV,14637971.57655,0.3129463919153,1.286870082929E-17,-0.9497707911845
566,GRAV,14675363.49857,0.329201626113,1.316905975208E-17,-0.9442596514543
567,GRAV,14675363.49857,0.329201626113,1.316905975208E-17,-0.9442596514543
568,GRAV,13831304.18818,0.2824742815297,1.230045247274E-17,-0.9592748721166
569,GRAV,13879114.05278,0.2922672289591,1.248395072086E-17,-0.9563366911693
570,GRAV,13761856.21223,0.2913263917469,1.246640992212E-17,-0.9566237157168
571,GRAV,13810974.35769,0.301109414715,1.264905808873E-17,-0.9535895974527
572,GRAV,13879114.05278,0.2922672289591,1.248395072086E-17,-0.9563366911693
573,GRAV,13928364.73098,0.3019617002633,1.266487885496E-17,-0.9533200572599
574,GRAV,13690869.93434,0.420837935942,1.482224867091E-17,-0.9071358397021
575,GRAV,13902119.06539,0.4137056703344,1.469609135632E-17,-0.9104106866317
576,GRAV,13810406.52988,0.4199321886449,1.480620567525E-17,-0.9075554842211
577,GRAV,13462540.03348,0.4178133921409,1.476896929472E-17,-0.9085328664103
578,GRAV,13353991.43179,0.4137952623377,1.469796082569E-17,-0.9103699692251
579,GRAV,13307804.0944,0.4052253736012,1.4545936718E-17,-0.9142168214323
580,GRAV,13288803.25335,0.3190074679838,1.29816107614E-17,-0.9477522014591
581,GRAV,13400607.2672,0.3152522464665,1.291204191348E-17,-0.9490079141387
582,GRAV,13529239.44379,0.3177614771019,1.295843163243E-17,-0.9481706827729
583,GRAV,13115082.17455,0.3419708487979,1.340432221168E-17,-0.9397105610625
584,GRAV,13240733.01856,0.3391482914158,1.335253415152E-17,-0.9407329251332
585,GRAV,13115082.17455,0.3419708487979,1.340432221168E-17,-0.9397105610625
586,GRAV,13240733.01856,0.3391482914158,1.335253415152E-17,-0.9407329251332
587,GRAV,13120518.87778,0.3617027756506,1.376406372635E-17,-0.932293463501
588,GRAV,13037425.70807,0.3685707799572,1.388857316109E-17,-0.9295996881248
589,GRAV,13037425.70807,0.3685707799572,1.388857316109E-17,-0.9295996881248
590,GRAV,13120518.87778,0.3617027756506,1.376406372635E-17,-0.932293463501
591,GRAV,13120371.51237,0.3892979617505,1.426174577526E-17,-0.9211118808141
592,GRAV,13241628.41002,0.392012903813,1.431029397594E-17,-0.9199597182725
593,GRAV,13241628.41002,0.392012903813,1.431029397594E-17,-0.9199597182725
594,GRAV,13120371.51237,0.3892979617505,1.426174577526E-17,-0.9211118808141
595,GRAV,14501770.27552,0.3697837297991,1.390977049907E-17,-0.9291178575272
596,GRAV,14420154.0101,0.3657881755519,1.383748806514E-17,-0.9306981307741
597,GRAV,14460049.876,0.3469594145386,1.349489135412E-17,-0.9378801440819
598,GRAV,14558318.42113,0.3469882399707,1.34953732491E-17,-0.9378694798969
599,GRAV,14505942.23442,0.3576586879293,1.368989509875E-17,-0.9338523774927
600,GRAV,14420306.45627,0.3615766746527,1.376111574471E-17,-0.9323423772129
601,GRAV,14419186.78252,0.3612816938975,1.375576151017E-17,-0.9324567215987
602,GRAV,14504841.72205,0.3573646741927,1.368454889981E-17,-0.9339649295552
603,GRAV,10538891.65615,0.3816535625375,1.412631342234E-17,-0.9243054463772
604,GRAV,5800808.564785,0.3802112633501,1.41078029053E-17,-0.9248996676514
605,GRAV,5800808.564785,0.3802112633501,1.41078029053E-17,-0.9248996676514
606,GRAV,5806356.69951,0.408609635364,1.461537268999E-17,-0.9127092449886
607,GRAV,8173172.552244,0.3963111673339,1.439162417624E-17,-0.918116255518
608,GRAV,10540801.0527,0.3419763047864,1.340620868612E-17,-0.9397085755513
609,GRAV,8168739.301009,0.365860463103,1.384388933417E-17,-0.9306697166761
610,GRAV,10537745.88265,0.3579232955892,1.369719705236E-17,-0.933750991686
611,GRAV,8173172.591561,0.3350128608682,1.328113616228E-17,-0.9422135549083
612,GRAV,5802889.771546,0.3369066135099,1.332070091798E-17,-0.9415380681488
613,GRAV,10537745.88265,0.3579232955892,1.369719705236E-17,-0.933750991686
614,GRAV,8168739.301009,0.365860463103,1.384388933417E-17,-0.9306697166761
615,GRAV,2153299.271646,0.4608840025796,1.555890852267E-17,-0.8874603856884
616,GRAV,2031574.493759,0.6012998274698,1.788252307992E-17,-0.7990234774303
617,GRAV,2154756.034052,0.1435284695893,9.65828952405E-18,-0.9896461885024
618,GRAV,2029811.570302,0.03489561687039,7.472033485928E-18,-0.9993909624983
619,GRAV,4903230.708383,0.2499870603124,1.169908306977E-17,-0.9682491774726
620,GRAV,2044706.839977,0.2535533186625,1.179422408449E-17,-0.9673214122489
621,GRAV,2175158.297029,0.680416473642,1.907738567515E-17,-0.7328256425622
622,GRAV,1770635.18285,0.02347608774058,7.24421132468E-18,-0.9997243986742
623,GRAV,2388254.066305,0.02364542949185,7.233686131825E-18,-0.9997204077462
624,GRAV,3896843.342421,0.08254759513071,8.419455310845E-18,-0.9965871234057
625,GRAV,2736570.640004,0.06980921378474,8.172074342709E-18,-0.9975603609159
626,GRAV,4692636.454521,0.5230367135914,1.65889098679E-17,-0.8523101526061
627,GRAV,3829158.872318,-0.01098301536113,6.501435282723E-18,-0.9999396848678
628,GRAV,2389445.996676,0.6316432679978,1.834579997951E-17,-0.7752591708539
629,GRAV,1787691.248863,0.2736368851791,1.21809434888E-17,-0.9618330702723
630,GRAV,3129213.079129,0.2692244555517,1.207471274139E-17,-0.9630774592591
631,GRAV,3574661.911591,0.2498550465682,1.170384433889E-17,-0.9682832517938
632,GRAV,2887635.364986,0.238223741025,1.148848386029E-17,-0.9712103012283
633,GRAV,3782975.624598,0.2086390818742,1.091215790484E-17,-0.9779927062687
634,GRAV,3868369.396757,0.3376442935207,1.334250532962E-17,-0.9412737811354
635,GRAV,3547788.345515,0.1789055916203,1.033619456473E-17,-0.9838662456284
636,GRAV,4118124.592548,0.3546979231418,1.365270398738E-17,-0.9349809534525
637,GRAV,3098478.474507,0.1884901079192,1.052700328298E-17,-0.98207508838
638,GRAV,4061647.274677,0.2960035703306,1.257048597002E-17,-0.9551868332172
639,GRAV,5074078.382565,0.2847041755925,1.2354277141E-17,-0.9586154246621
640,GRAV,4193773.022827,-0.02305124552052,6.247441665981E-18,-0.9997342847377
641,GRAV,2868452.404512,-0.05273583109281,5.634453571535E-18,-0.9986084979205
642,GRAV,2538298.212275,-0.1126096105775,4.362995429906E-18,-0.9936393086053
643,GRAV,4770747.985933,0.5862244712665,1.761715778187E-17,-0.810148671102
644,GRAV,4872878.053647,0.3434880762239,1.344446982581E-17,-0.9391570377163
645,GRAV,4255662.40824,0.06275381832668,8.016289551929E-18,-0.9980290367947
646,GRAV,1634931.633406,0.1533647957188,9.866668514498E-18,-0.9881696410203
647,GRAV,5016017.117252,0.2215227942983,1.1154259718E-17,-0.9751551936006
648,GRAV,3943135.230394,0.1277005214665,9.324162402825E-18,-0.9918127730662
649,GRAV,2331441.517057,0.0976328698969,8.739884135645E-18,-0.9952224991004
650,GRAV,4663978.923157,0.4895534807719,1.602603185155E-17,-0.8719732733657
651,GRAV,3718092.657997,0.09386076923425,8.648691539007E-18,-0.9955853333586
652,GRAV,2687132.473469,0.1347875036288,9.476312528323E-18,-0.9908745273068
653,GRAV,2912526.701309,0.0886931338981,8.551766375478E-18,-0.9960589982523
654,GRAV,3647092.355224,-0.004043692572778,6.647039441846E-18,-0.9999918242418
655,GRAV,2243256.124637,0.38621576222,1.424193420338E-17,-0.9224084697209
656,GRAV,1894820.84154,0.1477738104839,9.748305826958E-18,-0.989021183259
657,GRAV,4886739.495307,0.4382015912508,1.513982708083E-17,-0.8988767242649
658,GRAV,3368907.183999,-0.06704756958741,5.326732463541E-18,-0.9977497799611
659,GRAV,4757613.570916,0.2274035442282,1.126825293747E-17,-0.9738006100185
660,GRAV,4330978.611305,0.5356421275055,1.679946989382E-17,-0.8444450907202
661,GRAV,3661557.852748,0.7543569249054,2.008190253828E-17,-0.6564644924497
662,GRAV,4873810.593622,0.5173989379907,1.649418064991E-17,-0.8557443186876
663,GRAV,2216458.666614,-0.00487804391991,6.646679833406E-18,-0.999988102273
664,GRAV,3036776.599464,-0.02765660986096,6.159804806328E-18,-0.9996174828058
665,GRAV,5030809.058369,0.3612980596084,1.376847569154E-17,-0.9324503805154
666,GRAV,4779721.466698,0.3741551936743,1.400219826936E-17,-0.927366104107
667,GRAV,4298091.430241,0.1044473928787,8.857828551868E-18,-0.9945304128687
668,GRAV,3808208.858944,-0.05879958206741,5.498094900139E-18,-0.9982698077918
669,GRAV,4019799.855682,0.4535024649163,1.541048147783E-17,-0.8912550220419
670,GRAV,2745592.59926,0.3825047468631,1.416745786351E-17,-0.9239535262269
671,GRAV,3763525.276887,0.4433162081036,1.523498588429E-17,-0.8963652936346
672,GRAV,2998635.558814,0.4017692602885,1.450922039677E-17,-0.9157409357931
673,GRAV,1894820.84154,0.1477738104839,9.748305826958E-18,-0.989021183259
674,GRAV,3542697.796907,-0.1228020093316,4.132668117852E-18,-0.9924311898082
675,GRAV,5087391.591164,0.4677867408584,1.565219172306E-17,-0.8838413687292
676,GRAV,5132594.409999,0.4229130122985,1.487052150064E-17,-0.9061702842339
677,GRAV,4415492.631923,0.6029140768214,1.788236289635E-17,-0.7978061268069
678,GRAV,4299911.421522,0.4997080994766,1.61997514724E-17,-0.8661938670514
679,GRAV,5225932.518552,0.3039567273187,1.271349765986E-17,-0.9526858390454
680,GRAV,5181544.085753,0.2566858793494,1.182528294027E-17,-0.966494883247
681,GRAV,4174653.184502,-0.06672100840783,5.328159357867E-18,-0.997771670793
682,GRAV,4949063.462261,0.5786978714851,1.749640307984E-17,-0.8155420121236
683,GRAV,2377370.259347,-0.1485338885187,3.588332220702E-18,-0.9889073181858
684,GRAV,2949420.551296,-0.109317830085,4.428501551004E-18,-0.9940068470717
685,GRAV,4819864.966741,0.6157606632659,1.808093567277E-17,-0.7879332494408
686,GRAV,4435624.196043,0.05405125966137,7.838194226E-18,-0.9985381621796
687,GRAV,3290380.690399,-0.1411126527812,3.738421421086E-18,-0.9899935450421
688,GRAV,4736385.79682,0.09519503121281,8.669982808255E-18,-0.9954586410456
689,GRAV,3614157.81477,0.7063742879923,1.943096525087E-17,-0.7078385163746
690,GRAV,3408117.074388,0.7651040375308,2.022267712077E-17,-0.643906679383
691,GRAV,4468516.211776,0.6340620829783,1.836405780589E-17,-0.7732821444526
692,GRAV,4376280.571741,-0.02832992081286,6.136035782597E-18,-0.9995986272433
693,GRAV,2629452.453629,-0.173796946112,3.032545836487E-18,-0.9847815095351
694,GRAV,3859619.155289,0.4992357594918,1.619432071337E-17,-0.8664661888641
695,GRAV,2828471.371071,0.4626634588003,1.557898866319E-17,-0.8865339947746
696,GRAV,3343335.044857,0.483871673731,1.593747447182E-17,-0.8751389623144
697,GRAV,3325779.091272,0.6582570085946,1.873615276921E-17,-0.7527932721777
698,GRAV,3100634.103955,0.72366919202,1.967564677434E-17,-0.6901470137016
699,GRAV,3066650.553418,0.6634795756005,1.881613420687E-17,-0.7481943950345
700,GRAV,4113739.468873,0.716122854301,1.95639052687E-17,-0.6979742527829
701,GRAV,4318212.015432,0.6889904385507,1.917941350566E-17,-0.7247704295746
702,GRAV,4757613.570916,0.2274035442282,1.126825293747E-17,-0.9738006100185
703,GRAV,4238668.048816,0.6121921693671,1.802822290692E-17,-0.7907090158621
704,GRAV,4150555.06855,0.5427156812718,1.691685917522E-17,-0.8399164775748
705,GRAV,4079904.987052,0.6707924547075,1.891620919773E-17,-0.7416451191153
706,GRAV,2493763.220639,0.5133259091838,1.644486797853E-17,-0.8581937490804
707,GRAV,3451148.611156,0.5436373453818,1.693667224382E-17,-0.8393202229818
708,GRAV,3191602.153239,0.539420578962,1.686963899469E-17,-0.8420364831718
709,GRAV,2403763.562605,0.7578011281681,2.014040948948E-17,-0.6524855938234
710,GRAV,1812302.220636,0.6579043158728,1.875499174821E-17,-0.7531015277876
711,GRAV,2653339.345364,0.7763846913213,2.037327798585E-17,-0.6302593205039
712,GRAV,2600573.392016,0.7117040746633,1.951598336064E-17,-0.7024794019098
713,GRAV,4729445.40626,0.1541150629077,9.843058920853E-18,-0.988052907179
714,GRAV,4989308.036312,0.1519534794713,9.799389819367E-18,-0.9883876466633
715,GRAV,4469608.035333,0.1565271117303,9.891749985083E-18,-0.9876736623467
716,GRAV,4729445.40626,0.1541150629077,9.843058920853E-18,-0.988052907179
717,GRAV,4691170.765539,0.3101375987059,1.283048470406E-17,-0.9506916797095
718,GRAV,4538755.188593,0.2888594645754,1.243439712752E-17,-0.9573715108176
719,GRAV,4592521.231764,0.3417492178912,1.34138390079E-17,-0.9397911853549
720,GRAV,4436718.018393,0.3213286241015,1.303892425248E-17,-0.9469677477787
721,GRAV,4538755.188593,0.2888594645754,1.243439712752E-17,-0.9573715108176
722,GRAV,4388753.314675,0.2659562447917,1.200417759448E-17,-0.9639851014701
723,GRAV,2031574.493759,0.6012998274698,1.788252307992E-17,-0.7990234774303
724,GRAV,2153299.271646,0.4608840025796,1.555890852267E-17,-0.8874603856884
725,GRAV,1678005.844627,0.5565494960126,1.717697070119E-17,-0.8308144549105
726,GRAV,1823487.440095,0.3864732413927,1.425639972847E-17,-0.922300620019

***********************************************************
** MbDAssembly gravity
*DLOAD
Eall,GRAV,9810,0,0,-1

***********************************************************
** Outputs --> frd file
*NODE FILE
U
*EL FILE
S, E
*OUTPUT, FREQUENCY=1
***********************************************************
*END STEP

***********************************************************
** CalculiX Input file
**   written by    --> FreeCAD 26.3.0
**   written on    --> Sat Sep  5 11:50:16 2026
**   file name     --> RealisticPendulum.FCStd
**   analysis name --> FEMPart002
**
**
***********************************************************
**  About units:
**  See ccx manual, ccx does not know about any unit.
**  Golden rule: The user must make sure that the numbers they provide have consistent units.
**  The user is the FreeCAD calculix writer module ;-)
**
**  The unit system which is used at Guido Dhondt's company: mm, N, s, K
**  Since Length and Mass are connected by Force, if Length is mm the Mass is in t to get N
**  The following units are used to write to inp file:
**
**  Length: mm (this includes the mesh geometry)
**  Mass: t
**  TimeSpan: s
**  Temperature: K
**
**  This leads to:
**  Force: N
**  Pressure: N/mm^2 == MPa (Young's Modulus has unit Pressure)
**  Density: t/mm^3
**  Gravity: mm/s^2
**  Thermal conductivity: t*mm/K/s^3 == as W/m/K == kW/mm/K
**  Specific Heat: mm^2/s^2/K = J/kg/K == kJ/t/K
**
