** written by FreeCAD inp file writer for CalculiX,Abaqus meshes
** highest dimension mesh elements only.

** Nodes
*Node, NSET=Nall
1, -5e-15, 5, 212
2, -5e-15, -5, 212
3, -2e-15, 5, 200
4, -2e-15, -5, 200
5, -5, -3, 180
6, -5, -3, 48
7, -5, 3, 180
8, -5, 3, 48
9, 5, -3, 180
10, 5, -3, 48
11, 5, 3, 180
12, 5, 3, 48
13, -7e-15, 5, 76
14, -7e-15, -5, 76
15, 10, 5, 209.3205080757
16, 17.32050807569, 5, 202
17, 20, 5, 192
18, 17.32050807569, 5, 182
19, 10, 5, 174.6794919243
20, -1.130139009627e-13, 5, 172
21, -10, 5, 174.6794919243
22, -17.32050807569, 5, 182
23, -20, 5, 192
24, -17.32050807569, 5, 202
25, -10, 5, 209.3205080757
26, 5.17638090205, 5, 211.3185165258
27, 14.14213562373, 5, 206.1421356237
28, 19.31851652578, 5, 197.1763809021
29, 19.31851652578, 5, 186.8236190979
30, 14.14213562373, 5, 177.8578643763
31, 5.17638090205, 5, 172.6814834742
32, -5.176380902051, 5, 172.6814834742
33, -14.14213562373, 5, 177.8578643763
34, -19.31851652578, 5, 186.8236190979
35, -19.31851652578, 5, 197.1763809021
36, -14.14213562373, 5, 206.1421356237
37, -5.17638090205, 5, 211.3185165258
38, -4.9e-15, 0, 212
39, 10, -5, 209.3205080757
40, 17.32050807569, -5, 202
41, 20, -5, 192
42, 17.32050807569, -5, 182
43, 10, -5, 174.6794919243
44, -1.130139009627e-13, -5, 172
45, -10, -5, 174.6794919243
46, -17.32050807569, -5, 182
47, -20, -5, 192
48, -17.32050807569, -5, 202
49, -10, -5, 209.3205080757
50, 5.17638090205, -5, 211.3185165258
51, 14.14213562373, -5, 206.1421356237
52, 19.31851652578, -5, 197.1763809021
53, 19.31851652578, -5, 186.8236190979
54, 14.14213562373, -5, 177.8578643763
55, 5.17638090205, -5, 172.6814834742
56, -5.176380902051, -5, 172.6814834742
57, -14.14213562373, -5, 177.8578643763
58, -19.31851652578, -5, 186.8236190979
59, -19.31851652578, -5, 197.1763809021
60, -14.14213562373, -5, 206.1421356237
61, -5.17638090205, -5, 211.3185165258
62, 4, 5, 198.9282032303
63, 6.928203230276, 5, 196
64, 8, 5, 192
65, 6.928203230275, 5, 188
66, 4, 5, 185.0717967697
67, -4.520556038509e-14, 5, 184
68, -4, 5, 185.0717967697
69, -6.928203230276, 5, 188
70, -8, 5, 192
71, -6.928203230275, 5, 196
72, -4, 5, 198.9282032303
73, 2.07055236082, 5, 199.7274066103
74, 5.656854249492, 5, 197.6568542495
75, 7.727406610313, 5, 194.0705523608
76, 7.727406610313, 5, 189.9294476392
77, 5.656854249492, 5, 186.3431457505
78, 2.07055236082, 5, 184.2725933897
79, -2.07055236082, 5, 184.2725933897
80, -5.656854249492, 5, 186.3431457505
81, -7.727406610313, 5, 189.9294476392
82, -7.727406610313, 5, 194.0705523608
83, -5.656854249492, 5, 197.6568542495
84, -2.07055236082, 5, 199.7274066103
85, 4, -5, 198.9282032303
86, 6.928203230276, -5, 196
87, 8, -5, 192
88, 6.928203230275, -5, 188
89, 4, -5, 185.0717967697
90, -4.520556038509e-14, -5, 184
91, -4, -5, 185.0717967697
92, -6.928203230276, -5, 188
93, -8, -5, 192
94, -6.928203230275, -5, 196
95, -4, -5, 198.9282032303
96, 2.07055236082, -5, 199.7274066103
97, 5.656854249492, -5, 197.6568542495
98, 7.727406610313, -5, 194.0705523608
99, 7.727406610313, -5, 189.9294476392
100, 5.656854249492, -5, 186.3431457505
101, 2.07055236082, -5, 184.2725933897
102, -2.07055236082, -5, 184.2725933897
103, -5.656854249492, -5, 186.3431457505
104, -7.727406610313, -5, 189.9294476392
105, -7.727406610313, -5, 194.0705523608
106, -5.656854249492, -5, 197.6568542495
107, -2.07055236082, -5, 199.7274066103
108, -1.96e-15, -1.666666666667, 200
109, -1.96e-15, 1.666666666667, 200
110, -1.96e-15, -3.333333333333, 200
111, -1.96e-15, 8.881784197001e-16, 200
112, -1.96e-15, 3.333333333333, 200
113, -5, -3, 114
114, -5, 0, 180
115, -5, 3, 114
116, -5, 0, 48
117, 5, -3, 114
118, 5, 0, 180
119, 5, 3, 114
120, 5, 0, 48
121, 0, -3, 48
122, 0, -3, 180
123, 0, 3, 48
124, 0, 3, 180
125, 14, 5, 72.24871130596
126, 24.24871130596, 5, 62
127, 28, 5, 48
128, 24.24871130596, 5, 34
129, 14, 5, 23.75128869404
130, -1.706539592236e-13, 5, 20
131, -14, 5, 23.75128869404
132, -24.24871130596, 5, 34
133, -28, 5, 48
134, -24.24871130596, 5, 62
135, -14, 5, 72.24871130596
136, 7.246933262871, 5, 75.04592313609
137, 19.79898987322, 5, 67.79898987322
138, 27.04592313609, 5, 55.24693326287
139, 27.04592313609, 5, 40.75306673713
140, 19.79898987322, 5, 28.20101012678
141, 7.24693326287, 5, 20.95407686391
142, -7.246933262871, 5, 20.95407686391
143, -19.79898987322, 5, 28.20101012678
144, -27.04592313609, 5, 40.75306673713
145, -27.04592313609, 5, 55.24693326287
146, -19.79898987322, 5, 67.79898987322
147, -7.24693326287, 5, 75.04592313609
148, -6.86e-15, 0, 76
149, 14, -5, 72.24871130596
150, 24.24871130596, -5, 62
151, 28, -5, 48
152, 24.24871130596, -5, 34
153, 14, -5, 23.75128869404
154, -1.706539592236e-13, -5, 20
155, -14, -5, 23.75128869404
156, -24.24871130596, -5, 34
157, -28, -5, 48
158, -24.24871130596, -5, 62
159, -14, -5, 72.24871130596
160, 7.246933262871, -5, 75.04592313609
161, 19.79898987322, -5, 67.79898987322
162, 27.04592313609, -5, 55.24693326287
163, 27.04592313609, -5, 40.75306673713
164, 19.79898987322, -5, 28.20101012678
165, 7.24693326287, -5, 20.95407686391
166, -7.246933262871, -5, 20.95407686391
167, -19.79898987322, -5, 28.20101012678
168, -27.04592313609, -5, 40.75306673713
169, -27.04592313609, -5, 55.24693326287
170, -19.79898987322, -5, 67.79898987322
171, -7.24693326287, -5, 75.04592313609
172, 5.17638090205, 0, 211.3185165258
173, -5.17638090205, 0, 211.3185165258
174, 10, 0, 209.3205080757
175, -10, 0, 209.3205080757
176, 14.14213562373, 0, 206.1421356237
177, 19.31851652578, 0, 197.1763809021
178, 20, 0, 192
179, 17.32050807569, 0, 202
180, 19.31851652578, 0, 186.8236190979
181, 17.32050807569, 0, 182
182, 14.14213562373, 0, 177.8578643763
183, 10, 0, 174.6794919243
184, 5.17638090205, 0, 172.6814834742
185, -5.176380902051, 0, 172.6814834742
186, -1.130139009627e-13, 0, 172
187, -14.14213562373, 0, 177.8578643763
188, -17.32050807569, 0, 182
189, -10, 0, 174.6794919243
190, -19.31851652578, 0, 186.8236190979
191, -19.31851652578, 0, 197.1763809021
192, -17.32050807569, 0, 202
193, -20, 0, 192
194, -14.14213562373, 0, 206.1421356237
195, 3.416237101988, 5, 204.7495704353
196, 9.333333333333, 5, 182.6666666667
197, -3.472079033996, 5, 204.5411655079
198, -9.286798389993, 5, 201.0901942513
199, -12.74957043532, 5, 188.583762898
200, -12.38084668855, 5, 195.2789928582
201, -9.124928405887, 5, 182.7225085987
202, 3.26367410655, 5, 179.4029925601
203, 12.59700743988, 5, 188.7363258935
204, -3.31020904989, 5, 179.6461316421
205, 9.277491401325, 5, 201.1249284059
206, 12.35386835786, 5, 195.3102090499
207, 6.708118550994, 5, 207.0350392555
208, 1.708118550994, 5, 208.3747852177
209, -1.736039516998, 5, 208.2705827539
210, -6.736039516998, 5, 206.9308367918
211, -0.02792096600395, 5, 204.6453679716
212, 1.708118550994, 5, 202.3747852177
213, 3.708118550994, 5, 201.8388868328
214, -3.736039516998, 5, 201.7346843691
215, -1.736039516998, 5, 202.2705827539
216, 13.29899973851, 5, 201.5624642029
217, 9.638745700663, 5, 205.2227182408
218, 6.346864251657, 5, 202.9372494206
219, 16.17693417893, 5, 193.6551045249
220, 14.83718821678, 5, 198.6551045249
221, 10.81567987959, 5, 198.2175687279
222, 14.95875775779, 5, 185.3681629467
223, 16.29850371994, 5, 190.3681629467
224, 12.47543789887, 5, 192.0232674717
225, 9.666666666667, 5, 178.6730792955
226, 13.32692070451, 5, 182.3333333333
227, 10.96517038661, 5, 185.7014962801
228, 1.631837053275, 5, 175.7014962801
229, 6.631837053275, 5, 177.0412422422
230, 6.298503719941, 5, 181.0348296134
231, -6.655104524945, 5, 177.1628117832
232, -1.655104524945, 5, 175.8230658211
233, -0.02326747167005, 5, 179.5245621011
234, -13.22271824079, 5, 182.3612542993
235, -9.562464202944, 5, 178.7010002615
236, -6.217568727888, 5, 181.1843201204
237, -16.37478521766, 5, 190.291881449
238, -15.03503925551, 5, 185.291881449
239, -10.9372494206, 5, 185.6531357483
240, -14.85067738212, 5, 198.6394964291
241, -16.19042334427, 5, 193.6394964291
242, -12.56520856193, 5, 191.9313778781
243, -9.643399194997, 5, 205.2053511635
244, -13.30365323284, 5, 201.5450971257
245, -10.83382253927, 5, 198.1845935548
246, -6.379438711995, 5, 202.8156798796
247, 6.638745700663, 5, 200.0265658181
248, 8.1028473158, 5, 198.5624642029
249, 9.641035794069, 5, 195.6551045249
250, 10.17693417893, 5, 193.6551045249
251, 10.29850371994, 5, 190.3681629467
252, 9.762605335079, 5, 188.3681629467
253, 8.130768281804, 5, 185.3333333333
254, 6.666666666667, 5, 183.8692317182
255, 3.631837053275, 5, 182.2373946649
256, 1.631837053275, 5, 181.7014962801
257, -1.655104524945, 5, 181.8230658211
258, -3.655104524945, 5, 182.3589642059
259, -6.562464202943, 5, 183.8971526842
260, -8.026565818081, 5, 185.3612542993
261, -9.838886832798, 5, 188.291881449
262, -10.37478521766, 5, 190.291881449
263, -10.19042334427, 5, 193.6394964291
264, -9.654524959411, 5, 195.6394964291
265, -8.107500810134, 5, 198.5450971257
266, -6.643399194997, 5, 200.0091987408
267, 3.416237101988, -5, 204.7495704353
268, 9.333333333333, -5, 182.6666666667
269, -3.472079033996, -5, 204.5411655079
270, -9.286798389993, -5, 201.0901942513
271, -12.74957043532, -5, 188.583762898
272, -12.38084668855, -5, 195.2789928582
273, -9.124928405887, -5, 182.7225085987
274, 3.26367410655, -5, 179.4029925601
275, 12.59700743988, -5, 188.7363258935
276, -3.31020904989, -5, 179.6461316421
277, 9.277491401325, -5, 201.1249284059
278, 12.35386835786, -5, 195.3102090499
279, 1.708118550994, -5, 208.3747852177
280, 6.708118550994, -5, 207.0350392555
281, -6.736039516998, -5, 206.9308367918
282, -1.736039516998, -5, 208.2705827539
283, -0.02792096600395, -5, 204.6453679716
284, 3.708118550994, -5, 201.8388868328
285, 1.708118550994, -5, 202.3747852177
286, -1.736039516998, -5, 202.2705827539
287, -3.736039516998, -5, 201.7346843691
288, 9.638745700663, -5, 205.2227182408
289, 13.29899973851, -5, 201.5624642029
290, 6.346864251657, -5, 202.9372494206
291, 14.83718821678, -5, 198.6551045249
292, 16.17693417893, -5, 193.6551045249
293, 10.81567987959, -5, 198.2175687279
294, 16.29850371994, -5, 190.3681629467
295, 14.95875775779, -5, 185.3681629467
296, 12.47543789887, -5, 192.0232674717
297, 13.32692070451, -5, 182.3333333333
298, 9.666666666667, -5, 178.6730792955
299, 10.96517038661, -5, 185.7014962801
300, 6.631837053275, -5, 177.0412422422
301, 1.631837053275, -5, 175.7014962801
302, 6.298503719941, -5, 181.0348296134
303, -1.655104524945, -5, 175.8230658211
304, -6.655104524945, -5, 177.1628117832
305, -0.02326747167005, -5, 179.5245621011
306, -9.562464202944, -5, 178.7010002615
307, -13.22271824079, -5, 182.3612542993
308, -6.217568727888, -5, 181.1843201204
309, -15.03503925551, -5, 185.291881449
310, -16.37478521766, -5, 190.291881449
311, -10.9372494206, -5, 185.6531357483
312, -16.19042334427, -5, 193.6394964291
313, -14.85067738212, -5, 198.6394964291
314, -12.56520856193, -5, 191.9313778781
315, -13.30365323284, -5, 201.5450971257
316, -9.643399194997, -5, 205.2053511635
317, -10.83382253927, -5, 198.1845935548
318, -6.379438711995, -5, 202.8156798796
319, 8.1028473158, -5, 198.5624642029
320, 6.638745700663, -5, 200.0265658181
321, 10.17693417893, -5, 193.6551045249
322, 9.641035794069, -5, 195.6551045249
323, 9.762605335079, -5, 188.3681629467
324, 10.29850371994, -5, 190.3681629467
325, 6.666666666667, -5, 183.8692317182
326, 8.130768281804, -5, 185.3333333333
327, 1.631837053275, -5, 181.7014962801
328, 3.631837053275, -5, 182.2373946649
329, -3.655104524945, -5, 182.3589642059
330, -1.655104524945, -5, 181.8230658211
331, -8.026565818081, -5, 185.3612542993
332, -6.562464202943, -5, 183.8971526842
333, -10.37478521766, -5, 190.291881449
334, -9.838886832798, -5, 188.291881449
335, -9.654524959411, -5, 195.6394964291
336, -10.19042334427, -5, 193.6394964291
337, -6.643399194997, -5, 200.0091987408
338, -8.107500810134, -5, 198.5450971257
339, -7.751173309934, 0.0004090689846006, 193.9797253141
340, -5.900629000126, 0.008584387974766, 197.4020900958
341, 5.900629000126, 0.008584387974766, 197.4020900958
342, 7.751173309934, 0.0004090689846006, 193.9797253141
343, -7.727406610313, 0, 189.9294476392
344, -5.656854249492, 0, 186.3431457505
345, -2.07055236082, 3.333333333333, 199.7274066103
346, -3.330387815149, 0.3820363689807, 199.2738240975
347, 3.330387815149, 0.3820363689807, 199.2738240975
348, 2.07055236082, 3.333333333333, 199.7274066103
349, 1.816621978181, -2.083765626184, 199.7910130656
350, -1.816621978181, -2.083765626184, 199.7910130656
351, -2.07055236082, 0, 184.2725933897
352, 2.07055236082, 0, 184.2725933897
353, 5.656854249492, -8.881784197001e-16, 186.3431457505
354, 7.727406610313, 0, 189.9294476392
355, 1.04420953776, 4.166666666667, 199.931558891
356, 3.061467458921, 4.166666666667, 199.3910362601
357, -1.04420953776, 4.166666666667, 199.931558891
358, -3.061467458921, 4.166666666667, 199.3910362601
359, -1.04420953776, 2.5, 199.931558891
360, 1.04420953776, 2.5, 199.931558891
361, 0.914301775996, -3.541882813092, 199.9475815354
362, 2.940133162333, -3.541882813092, 199.440135549
363, -0.914301775996, -3.541882813092, 199.9475815354
364, -2.940133162333, -3.541882813092, 199.440135549
365, 0.914301775996, -1.875216146425, 199.9475815354
366, -0.914301775996, -1.875216146425, 199.9475815354
367, 5.008779190018, 2.504292193987, 198.237958883
368, 6.452611739297, 2.504292193987, 196.7290381413
369, 4.709433607583, 0.1953103784777, 198.4669339795
370, 3.669265570394, 2.69101818449, 199.1089021778
371, 2.709976562646, 1.857684851157, 199.5270197974
372, 7.408873150076, 2.500204534492, 195.018045501
373, 7.937549574002, 2.500204534492, 192.9976506203
374, 7.037120984672, 0.004496728479683, 195.8051186903
375, 7.93155889099, 2.5, 190.9557904622
376, 7.39103626009, 2.5, 188.9385325411
377, 7.999862273683, 0.0002045344923003, 191.9530574595
378, 6.34682672233, 2.5, 187.1299085679
379, 4.87009143207, 2.5, 185.6531732777
380, 6.928203230275, 0, 188
381, 3.061467458921, 2.5, 184.6089637399
382, 1.04420953776, 2.5, 184.068441109
383, 4, 0, 185.0717967697
384, -3.061467458921, 2.5, 184.6089637399
385, -1.04420953776, 2.5, 184.068441109
386, -4.165284670629e-14, 0, 184
387, -4.87009143207, 2.5, 185.6531732777
388, -6.34682672233, 2.5, 187.1299085679
389, -4, 0, 185.0717967697
390, -7.39103626009, 2.5, 188.9385325411
391, -7.93155889099, 2.5, 190.9557904622
392, -6.928203230276, 0, 188
393, -7.937549574002, 2.500204534492, 192.9976506203
394, -7.408873150076, 2.500204534492, 195.018045501
395, -7.999862273683, 0.0002045344923003, 191.9530574595
396, -6.452611739297, 2.504292193987, 196.7290381413
397, -5.008779190018, 2.504292193987, 198.237958883
398, -7.037120984672, 0.004496728479683, 195.8051186903
399, -4.709433607583, 0.1953103784777, 198.4669339795
400, -3.669265570394, 2.69101818449, 199.1089021778
401, -2.709976562646, 1.857684851157, 199.5270197974
402, 6.452611739297, -2.495707806013, 196.7290381413
403, 5.008779190018, -2.495707806013, 198.237958883
404, 3.669265570394, -2.30898181551, 199.1089021778
405, 2.586464490448, -0.8508646286017, 199.570350153
406, 7.937549574002, -2.499795465508, 192.9976506203
407, 7.408873150076, -2.499795465508, 195.018045501
408, 7.39103626009, -2.5, 188.9385325411
409, 7.93155889099, -2.5, 190.9557904622
410, 4.87009143207, -2.5, 185.6531732777
411, 6.34682672233, -2.5, 187.1299085679
412, 1.04420953776, -2.5, 184.068441109
413, 3.061467458921, -2.5, 184.6089637399
414, -1.04420953776, -2.5, 184.068441109
415, -3.061467458921, -2.5, 184.6089637399
416, -6.34682672233, -2.5, 187.1299085679
417, -4.87009143207, -2.5, 185.6531732777
418, -7.93155889099, -2.5, 190.9557904622
419, -7.39103626009, -2.5, 188.9385325411
420, -7.408873150076, -2.499795465508, 195.018045501
421, -7.937549574002, -2.499795465508, 192.9976506203
422, -5.008779190018, -2.495707806013, 198.237958883
423, -6.452611739297, -2.495707806013, 196.7290381413
424, -3.669265570394, -2.30898181551, 199.1089021778
425, -2.586464490448, -0.8508646286017, 199.570350153
426, 0.914301775996, -0.2085494797587, 199.9475815354
427, -0.914301775996, -0.2085494797587, 199.9475815354
428, -1.704319104564, 1.024351517824, 199.8163480213
429, 1.704319104564, 1.024351517824, 199.8163480213
430, -5, 0, 114
431, 5, 0, 114
432, 0, -3, 114
433, 0, 3, 114
434, 0, 0, 48
435, -2.5, 1.5, 48
436, -2.5, -1.5, 48
437, 2.5, -1.5, 48
438, 2.5, 1.5, 48
439, 0, 0, 180
440, -2.5, -1.5, 180
441, -2.5, 1.5, 180
442, 2.5, -1.5, 180
443, 2.5, 1.5, 180
444, 7.246933262871, 0, 75.04592313609
445, -7.246933262871, 0, 75.04592313609
446, 14, 0, 72.24871130596
447, -14, 0, 72.24871130596
448, 19.79898987322, 0, 67.79898987322
449, 24.24871130596, 0, 62
450, 27.04592313609, 0, 55.24693326287
451, 28, 0, 48
452, 27.04592313609, 0, 40.75306673713
453, 19.79898987322, 0, 28.20101012678
454, 24.24871130596, 0, 34
455, 7.24693326287, 0, 20.95407686391
456, -1.706539592236e-13, 0, 20
457, 14, 0, 23.75128869404
458, -7.246933262871, 0, 20.95407686391
459, -14, 0, 23.75128869404
460, -19.79898987322, 0, 28.20101012678
461, -24.24871130596, 0, 34
462, -27.04592313609, 0, 40.75306673713
463, -27.04592313609, 0, 55.24693326287
464, -24.24871130596, 0, 62
465, -28, 0, 48
466, -19.79898987322, 0, 67.79898987322
467, -7.174332940777e-15, 5, 48
468, -3.751288694036, 5, 62
469, -14, 5, 51.75128869404
470, 3.751288694036, 5, 34
471, 14, 5, 44.24871130596
472, 10.24871130596, 5, 58.24871130596
473, -10.24871130596, 5, 37.75128869404
474, 5.124355652982, 5, 67.12435565298
475, -14, 5, 62
476, 19.12435565298, 5, 53.12435565298
477, 14, 5, 34
478, 9.562177826491, 5, 69.68653347947
479, 2.562177826491, 5, 71.56217782649
480, -1.875644347018, 5, 69
481, -8.875644347018, 5, 67.12435565298
482, 0.6865334794732, 5, 64.56217782649
483, 17.24871130596, 5, 60.12435565298
484, 12.12435565298, 5, 65.24871130596
485, 7.686533479473, 5, 62.68653347947
486, 23.56217782649, 5, 50.56217782649
487, 21.68653347947, 5, 57.56217782649
488, 14.68653347947, 5, 55.68653347947
489, 19.12435565298, 5, 39.12435565298
490, 21, 5, 46.12435565298
491, 16.56217782649, 5, 48.68653347947
492, 14, 5, 28.87564434702
493, 19.12435565298, 5, 34
494, 14, 5, 39.12435565298
495, 1.875644347018, 5, 27
496, 8.875644347018, 5, 28.87564434702
497, 8.875644347018, 5, 34
498, -12.12435565298, 5, 30.75128869404
499, -5.124355652982, 5, 28.87564434702
500, -3.248711305964, 5, 35.87564434702
501, -17.24871130596, 5, 35.87564434702
502, -21, 5, 49.87564434702
503, -19.12435565298, 5, 42.87564434702
504, -12.12435565298, 5, 44.75128869404
505, -19.12435565298, 5, 56.87564434702
506, -14, 5, 67.12435565298
507, -19.12435565298, 5, 62
508, -14, 5, 56.87564434702
509, -8.875644347018, 5, 62
510, -7, 5, 49.87564434702
511, -8.875644347018, 5, 56.87564434702
512, -1.875644347018, 5, 55
513, 3.248711305964, 5, 60.12435565298
514, 5.124355652982, 5, 53.12435565298
515, -5.124355652982, 5, 42.87564434702
516, 7, 5, 46.12435565298
517, 8.875644347018, 5, 39.12435565298
518, 1.875644347018, 5, 41
519, 12.12435565298, 5, 51.24871130596
520, -7.174332940777e-15, -5, 48
521, -3.751288694036, -5, 62
522, -14, -5, 51.75128869404
523, 3.751288694036, -5, 34
524, 14, -5, 44.24871130596
525, 10.24871130596, -5, 58.24871130596
526, -10.24871130596, -5, 37.75128869404
527, 5.124355652982, -5, 67.12435565298
528, -14, -5, 62
529, 19.12435565298, -5, 53.12435565298
530, 14, -5, 34
531, 2.562177826491, -5, 71.56217782649
532, 9.562177826491, -5, 69.68653347947
533, -8.875644347018, -5, 67.12435565298
534, -1.875644347018, -5, 69
535, 0.6865334794732, -5, 64.56217782649
536, 12.12435565298, -5, 65.24871130596
537, 17.24871130596, -5, 60.12435565298
538, 7.686533479473, -5, 62.68653347947
539, 21.68653347947, -5, 57.56217782649
540, 23.56217782649, -5, 50.56217782649
541, 14.68653347947, -5, 55.68653347947
542, 21, -5, 46.12435565298
543, 19.12435565298, -5, 39.12435565298
544, 16.56217782649, -5, 48.68653347947
545, 19.12435565298, -5, 34
546, 14, -5, 28.87564434702
547, 14, -5, 39.12435565298
548, 8.875644347018, -5, 28.87564434702
549, 1.875644347018, -5, 27
550, 8.875644347018, -5, 34
551, -5.124355652982, -5, 28.87564434702
552, -12.12435565298, -5, 30.75128869404
553, -3.248711305964, -5, 35.87564434702
554, -17.24871130596, -5, 35.87564434702
555, -19.12435565298, -5, 42.87564434702
556, -21, -5, 49.87564434702
557, -12.12435565298, -5, 44.75128869404
558, -19.12435565298, -5, 56.87564434702
559, -19.12435565298, -5, 62
560, -14, -5, 67.12435565298
561, -14, -5, 56.87564434702
562, -8.875644347018, -5, 62
563, -1.875644347018, -5, 55
564, -8.875644347018, -5, 56.87564434702
565, -7, -5, 49.87564434702
566, 5.124355652982, -5, 53.12435565298
567, 3.248711305964, -5, 60.12435565298
568, -5.124355652982, -5, 42.87564434702
569, 1.875644347018, -5, 41
570, 8.875644347018, -5, 39.12435565298
571, 7, -5, 46.12435565298
572, 12.12435565298, -5, 51.24871130596
573, 15.28761091622, -7.216767801455e-17, 195.8350285147
574, 9.274950641241, 0, 202.7846252033
575, 1.879065298762, 1.7763568394e-15, 204.5912207106
576, 16.30405949595, -2.5, 198.9175142573
577, 17.64380545811, -2.5, 193.9175142573
578, 16.30405949595, 2.5, 198.9175142573
579, 17.64380545811, 2.5, 193.9175142573
580, 5.701942847077, 2.5, 183.4696300282
581, 7.495093791413, 2.5, 184.5049062086
582, 5.701942847077, -2.5, 183.4696300282
583, 7.495093791413, -2.5, 184.5049062086
584, 9.333333333333, 0, 182.6666666667
585, 0.5965608728647, 2.5, 181.8377929749
586, 2.667113233685, 2.5, 181.8377929749
587, 0.5965608728647, -2.5, 181.8377929749
588, 2.667113233685, -2.5, 181.8377929749
589, 3.26367410655, 0, 179.4029925601
590, -7.39089132769, -2.5, 184.5328271746
591, -9.124928405887, 0, 182.7225085987
592, -7.39089132769, 2.5, 184.5328271746
593, -5.597740383354, 2.5, 183.4975509942
594, -5.597740383354, -2.5, 183.4975509942
595, 10.1622070251, 2.5, 189.3328867663
596, 10.17409037491, 2.500204534492, 191.3580256038
597, 10.17409037491, -2.499795465508, 191.3580256038
598, 12.59700743988, 0, 188.7363258935
599, 10.1622070251, -2.5, 189.3328867663
600, -9.140737844336, 2.504292193987, 196.340541477
601, -10.06600999924, 2.500204534492, 194.6293590862
602, -10.06600999924, -2.499795465508, 194.6293590862
603, -12.38084668855, 0, 195.2789928582
604, -9.140737844336, -2.495707806013, 196.340541477
605, -6.308593102571, 2.69101818449, 200.1820091744
606, -3.401233424572, 2.69101818449, 201.9074948027
607, -3.472079033996, 0, 204.5411655079
608, -3.401233424572, -2.30898181551, 201.9074948027
609, -6.379438711995, 0, 202.8156798796
610, 6.298503719941, 0, 181.0348296134
611, -6.308593102571, -2.30898181551, 200.1820091744
612, -9.286798389993, 0, 201.0901942513
613, 12.47543789887, 0, 192.0232674717
614, 10.0525208339, -2.499795465508, 194.644967182
615, -6.217568727888, 0, 181.1843201204
616, -2.690380705355, 2.5, 181.9593625159
617, -2.690380705355, -2.5, 181.9593625159
618, -0.02326747167005, 0, 179.5245621011
619, -7.59371369506, 2.504292193987, 199.2461421735
620, -10.83382253927, 0, 198.1845935548
621, -7.59371369506, -2.495707806013, 199.2461421735
622, 10.0525208339, 2.500204534492, 194.644967182
623, 12.35386835786, 0, 195.3102090499
624, -3.31020904989, 0, 179.6461316421
625, 0.9395326493808, 0.8333333333333, 202.2956103553
626, 0.9395326493808, -0.8333333333333, 202.2956103553
627, 0.03122166029049, -1.041882813092, 202.1911168881
628, -2.771315697408, 4.166666666667, 202.1342860591
629, -1.736039516998, 3.333333333333, 202.2705827539
630, -0.7256612581935, 0.1910181844904, 201.932522404
631, -12.74957043532, 0, 188.583762898
632, -16.37478521766, 0, 190.291881449
633, -12.56520856193, 0, 191.9313778781
634, -1.736039516998, 0, 208.2705827539
635, -0.7965068676172, 2.5, 204.5661931092
636, -0.7965068676172, -2.5, 204.5661931092
637, 0.9395326493808, 2.5, 208.2956103553
638, 9.126930844688, 2.5, 187.539735822
639, 9.126930844688, -2.5, 187.539735822
640, -8.4261675081, -2.5, 186.3259781189
641, -8.4261675081, 2.5, 186.3259781189
642, -9.643399194997, 0, 205.2053511635
643, -14.85067738212, 0, 198.6394964291
644, -2.644350506088, -3.541882813092, 202.1660892867
645, -10.05412664943, 2.5, 192.6042202487
646, -10.05412664943, -2.5, 192.6042202487
647, 2.743394731404, 4.166666666667, 202.2384885228
648, 3.373312458568, 2.69101818449, 202.0116972664
649, 9.127248678994, 2.504292193987, 196.3561495728
650, 7.587789820683, 0.004292193987383, 200.0933576496
651, 10.81440949955, 2.5, 199.0474171266
652, 8.513061975587, 0.0002045344923003, 198.3821752587
653, 9.127248678994, -2.495707806013, 196.3561495728
654, 10.81440949955, -2.5, 199.0474171266
655, -15.03503925551, 0, 185.291881449
656, -6.736039516998, 0, 206.9308367918
657, -13.30365323284, 0, 201.5450971257
658, -16.19042334427, 0, 193.6394964291
659, 5.545786309711, -1.041882813092, 201.2878191345
660, 6.302669228195, 0.1910181844904, 201.0292246504
661, 6.63747532062, -2.5, 200.8564142168
662, 10.96517038661, 0, 185.7014962801
663, 13.32692070451, 0, 182.3333333333
664, 9.666666666667, 0, 178.6730792955
665, -10.9372494206, 0, 185.6531357483
666, -10.23848852282, -2.5, 189.2566052686
667, -10.23848852282, 2.5, 189.2566052686
668, 6.631837053275, 0, 177.0412422422
669, -13.22271824079, 0, 182.3612542993
670, 14.95875775779, 0, 185.3681629467
671, 1.631837053275, 0, 175.7014962801
672, -9.562464202944, 0, 178.7010002615
673, -6.655104524945, 0, 177.1628117832
674, -1.655104524945, 0, 175.8230658211
675, 13.82073963704, -2.5, 195.5726187823
676, 13.82073963704, 2.5, 195.5726187823
677, 12.28128077873, -3.608383900728e-17, 199.309826859
678, 7.589060200726, -2.495707806013, 199.2635092508
679, 0.9395326493808, -2.5, 208.2956103553
680, 7.589060200726, 2.504292193987, 199.2635092508
681, 16.29850371994, 0, 190.3681629467
682, 2.616429540084, -3.541882813092, 202.2702917505
683, 6.345593871614, -2.5, 203.7670978193
684, 9.276221021283, -2.5, 201.9547768046
685, 9.276221021283, 2.5, 201.9547768046
686, 6.303939608237, 2.69101818449, 200.1993762517
687, 13.29772935846, 2.5, 202.3923126017
688, 9.63747532062, -2.5, 206.0525666395
689, 13.29772935846, -2.5, 202.3923126017
690, 1.974808829791, 1.666666666667, 202.1593136604
691, 2.647651200375, 2.5, 204.6703955729
692, 2.604726556955, 0.1910181844904, 201.932522404
693, 5.939532649381, 2.5, 206.9558643931
694, 0.9395326493808, 2.5, 202.2956103553
695, 1.847843638471, -1.041882813092, 202.1911168881
696, 9.63747532062, 2.5, 206.0525666395
697, 5.939532649381, -2.5, 206.9558643931
698, 6.345593871614, 2.5, 203.7670978193
699, 5.577007970001, 8.881784197001e-16, 203.687922957
700, 2.647651200375, -2.5, 204.6703955729
701, 0.9395326493808, -2.5, 202.2956103553
702, 13.94230917805, -2.5, 192.2856772041
703, 13.94230917805, 2.5, 192.2856772041
704, -2.5, -1.5, 114
705, -2.5, 1.5, 114
706, 0, 0, 114
707, 2.5, 1.5, 114
708, 2.5, -1.5, 114
709, 8.975377643885, -0.8976663497507, 65.49317875684
710, 5.93537837674, -0.01296017741486, 25.92144332982
711, -6.011920087684, -0.5, 28.36320878172
712, -3.005960043842, -2.75, 24.18160439086
713, -1.130315696824, -2.75, 31.18160439086
714, -8.130315696824, -2.75, 33.05724873788
715, -10.00596004384, -2.75, 26.05724873788
716, 8.875644347018, 0, 28.87564434702
717, 3.751288694036, 0, 34
718, 4.843333535388, 2.493519911293, 29.96072166491
719, 4.843333535388, -2.506480088707, 29.96072166491
720, 9.96768918837, -2.506480088707, 24.83636601193
721, 9.96768918837, 2.493519911293, 24.83636601193
722, 5.124355652982, 0, 67.12435565298
723, 9.562177826491, 0, 69.68653347947
724, 11.48768882194, -2.948833174875, 68.8709450314
725, 7.049866648434, 2.051166825125, 66.30876720491
726, 7.049866648434, -2.948833174875, 66.30876720491
727, 1.875644347018, 0, 27
728, 2.96768918837, 2.493519911293, 22.96072166491
729, -12.12435565298, 0, 30.75128869404
730, -8.130315696824, 2.25, 33.05724873788
731, -10.00596004384, 2.25, 26.05724873788
732, 2.96768918837, -2.506480088707, 22.96072166491
733, 14, 0, 28.87564434702
734, 8.875644347018, 0, 34
735, 14, 0, 34
736, 19.12435565298, 0, 53.12435565298
737, 14.68653347947, 0, 55.68653347947
738, 16.56217782649, 0, 48.68653347947
739, 14, 0, 39.12435565298
740, -8.875644347018, 0, 62
741, -14, 0, 67.12435565298
742, -14, 0, 62
743, 23.56217782649, 0, 50.56217782649
744, -10.24871130596, 0, 37.75128869404
745, 7, 0, 46.12435565298
746, 1.875644347018, 0, 41
747, 5.124355652982, 0, 53.12435565298
748, 8.875644347018, 0, 39.12435565298
749, 12.12435565298, 0, 51.24871130596
750, 10.24871130596, 0, 58.24871130596
751, -1.875644347018, 0, 55
752, 14, 0, 44.24871130596
753, 3.248711305964, 0, 60.12435565298
754, -3.751288694036, 0, 62
755, 2.562177826491, 0, 71.56217782649
756, 21.68653347947, 0, 57.56217782649
757, 19.12435565298, 0, 34
758, -19.12435565298, 0, 62
759, 0.6865334794732, 0, 64.56217782649
760, -1.875644347018, 0, 69
761, 11.48768882194, 2.051166825125, 68.8709450314
762, -8.875644347018, 0, 67.12435565298
763, 21, 0, 46.12435565298
764, -3.248711305964, 0, 35.87564434702
765, 19.12435565298, 0, 39.12435565298
766, 9.612044474925, -2.948833174875, 61.8709450314
767, -14, 0, 56.87564434702
768, -21, 0, 49.87564434702
769, 17.24871130596, 0, 60.12435565298
770, -8.875644347018, 0, 56.87564434702
771, -7, 0, 49.87564434702
772, -5.124355652982, 0, 42.87564434702
773, -19.12435565298, 0, 42.87564434702
774, -14, 0, 51.75128869404
775, -19.12435565298, 0, 56.87564434702
776, -12.12435565298, 0, 44.75128869404
777, -17.24871130596, 0, 35.87564434702
778, 9.612044474925, 2.051166825125, 61.8709450314
779, 16.61204447492, -2.948833174875, 63.74658937842
780, 2.612044474925, 2.051166825125, 63.74658937842
781, 2.612044474925, -2.948833174875, 63.74658937842
782, -3.005960043842, 2.25, 24.18160439086


** Volume elements
*Element, TYPE=C3D10, ELSET=Evolumes
388, 41, 40, 16, 573, 52, 179, 177, 577, 576, 578
389, 41, 16, 17, 573, 177, 28, 178, 577, 578, 579
390, 353, 352, 196, 268, 383, 580, 581, 583, 582, 584
391, 352, 351, 202, 274, 386, 585, 586, 588, 587, 589
392, 201, 344, 273, 351, 592, 590, 591, 593, 389, 594
393, 203, 342, 354, 275, 596, 377, 595, 598, 597, 599
394, 200, 339, 340, 272, 601, 398, 600, 603, 602, 604
395, 346, 197, 198, 269, 606, 246, 605, 608, 607, 609
396, 274, 196, 352, 268, 610, 580, 588, 302, 584, 582
397, 198, 270, 346, 269, 612, 611, 605, 609, 318, 608
398, 196, 352, 202, 274, 580, 586, 230, 610, 588, 589
399, 342, 203, 278, 275, 596, 613, 614, 597, 598, 296
400, 204, 201, 273, 351, 236, 591, 615, 616, 593, 594
401, 276, 202, 351, 274, 618, 585, 617, 305, 589, 587
402, 272, 340, 198, 270, 604, 619, 620, 317, 621, 612
403, 278, 342, 206, 203, 614, 622, 623, 613, 596, 224
404, 276, 204, 273, 351, 624, 615, 308, 617, 616, 594
405, 351, 276, 204, 202, 617, 624, 616, 585, 618, 233
406, 200, 340, 198, 272, 600, 619, 245, 603, 604, 620
407, 198, 340, 346, 270, 619, 399, 605, 612, 621, 611
408, 108, 109, 350, 575, 111, 427, 366, 626, 625, 627
409, 345, 346, 109, 197, 401, 428, 359, 628, 606, 629
410, 109, 346, 350, 575, 428, 425, 427, 625, 630, 627
411, 199, 47, 271, 272, 632, 310, 631, 633, 312, 314
412, 269, 197, 1, 575, 607, 209, 634, 636, 635, 637
413, 353, 65, 354, 203, 378, 376, 380, 638, 252, 595
414, 354, 88, 353, 275, 408, 411, 380, 599, 323, 639
415, 344, 273, 92, 343, 590, 331, 416, 392, 640, 419
416, 343, 69, 344, 201, 390, 388, 392, 641, 260, 592
417, 269, 198, 270, 49, 609, 612, 318, 281, 642, 316
418, 198, 24, 200, 272, 244, 240, 245, 620, 643, 603
419, 269, 350, 346, 575, 644, 425, 608, 636, 627, 630
420, 346, 95, 350, 269, 424, 364, 425, 608, 287, 644
421, 342, 87, 354, 275, 406, 409, 377, 597, 324, 599
422, 64, 342, 354, 203, 373, 377, 375, 251, 596, 595
423, 343, 339, 70, 200, 395, 393, 391, 645, 601, 263
424, 272, 343, 339, 93, 646, 395, 602, 336, 418, 421
425, 195, 348, 62, 347, 647, 356, 213, 648, 371, 370
426, 206, 341, 342, 574, 649, 374, 622, 651, 650, 652
427, 342, 341, 278, 574, 374, 653, 614, 652, 650, 654
428, 72, 346, 345, 197, 400, 401, 358, 214, 606, 628
429, 278, 206, 342, 574, 623, 622, 614, 654, 651, 652
430, 272, 339, 340, 94, 602, 398, 604, 335, 420, 423
431, 199, 46, 271, 47, 655, 309, 631, 632, 58, 310
432, 340, 71, 339, 200, 396, 394, 398, 600, 264, 601
433, 341, 278, 86, 342, 653, 322, 402, 374, 614, 407
434, 206, 341, 63, 342, 649, 368, 249, 622, 374, 372
435, 25, 1, 269, 197, 37, 634, 656, 210, 209, 607
436, 48, 270, 198, 49, 315, 612, 657, 60, 316, 642
437, 24, 23, 200, 272, 35, 241, 240, 643, 658, 603
438, 347, 349, 85, 574, 405, 362, 404, 660, 659, 661
439, 196, 275, 268, 42, 662, 299, 584, 663, 295, 297
440, 43, 196, 274, 268, 664, 610, 300, 298, 584, 302
441, 46, 273, 199, 271, 307, 665, 655, 309, 311, 631
442, 197, 346, 109, 575, 606, 428, 629, 635, 630, 625
443, 65, 353, 196, 203, 378, 581, 253, 252, 638, 227
444, 268, 353, 88, 275, 583, 411, 326, 299, 639, 323
445, 271, 92, 273, 343, 334, 331, 311, 666, 419, 640
446, 69, 343, 199, 201, 390, 667, 261, 260, 641, 239
447, 196, 202, 43, 274, 230, 668, 664, 610, 589, 300
448, 46, 199, 273, 201, 655, 665, 307, 669, 239, 591
449, 275, 196, 203, 42, 662, 227, 598, 295, 663, 670
450, 198, 197, 25, 269, 246, 210, 243, 609, 607, 656
451, 199, 23, 272, 200, 237, 658, 633, 242, 241, 603
452, 202, 276, 44, 274, 618, 303, 671, 589, 305, 301
453, 273, 204, 21, 201, 615, 231, 672, 591, 236, 235
454, 48, 272, 198, 270, 313, 620, 657, 315, 317, 612
455, 273, 276, 21, 204, 308, 673, 672, 615, 624, 231
456, 204, 276, 44, 202, 624, 303, 674, 233, 618, 671
457, 343, 70, 199, 200, 391, 262, 667, 645, 263, 242
458, 343, 272, 271, 93, 646, 314, 666, 418, 336, 333
459, 95, 346, 340, 270, 424, 399, 422, 337, 611, 621
460, 346, 197, 269, 575, 606, 607, 608, 630, 635, 636
461, 206, 278, 573, 574, 623, 675, 676, 651, 654, 677
462, 87, 342, 278, 275, 406, 614, 321, 324, 597, 296
463, 342, 64, 206, 203, 373, 250, 622, 596, 251, 224
464, 18, 203, 196, 42, 222, 227, 226, 181, 670, 663
465, 199, 46, 22, 201, 655, 188, 238, 239, 669, 234
466, 3, 345, 109, 197, 357, 359, 112, 215, 628, 629
467, 199, 272, 23, 47, 633, 658, 237, 632, 312, 193
468, 272, 94, 340, 270, 335, 423, 604, 317, 338, 621
469, 71, 340, 198, 200, 396, 619, 265, 264, 600, 245
470, 198, 269, 25, 49, 609, 656, 243, 642, 281, 175
471, 277, 278, 86, 341, 293, 322, 319, 678, 653, 402
472, 2, 269, 1, 575, 282, 634, 38, 679, 636, 637
473, 206, 205, 63, 341, 221, 248, 249, 649, 680, 368
474, 346, 270, 95, 269, 611, 337, 424, 608, 318, 287
475, 21, 276, 273, 45, 673, 308, 672, 189, 304, 306
476, 198, 48, 24, 272, 657, 192, 244, 620, 313, 643
477, 42, 196, 43, 268, 663, 664, 54, 297, 584, 298
478, 43, 202, 44, 274, 668, 671, 55, 300, 589, 301
479, 17, 275, 203, 42, 681, 598, 223, 180, 295, 670
480, 46, 273, 21, 201, 307, 672, 187, 669, 591, 235
481, 44, 21, 276, 204, 185, 673, 303, 674, 231, 624
482, 85, 349, 267, 574, 362, 682, 284, 661, 659, 683
483, 277, 278, 341, 574, 293, 653, 678, 684, 654, 650
484, 206, 205, 341, 574, 221, 680, 649, 651, 685, 650
485, 341, 347, 85, 574, 369, 404, 403, 650, 660, 661
486, 195, 62, 205, 347, 213, 247, 218, 648, 370, 686
487, 72, 340, 346, 198, 397, 399, 400, 266, 619, 605
488, 39, 16, 40, 574, 176, 179, 51, 688, 687, 689
489, 205, 347, 62, 341, 686, 370, 247, 680, 369, 367
490, 72, 198, 346, 197, 266, 605, 400, 214, 246, 606
491, 21, 44, 276, 45, 185, 303, 673, 189, 56, 304
492, 22, 23, 46, 199, 34, 190, 188, 238, 237, 655
493, 46, 199, 23, 47, 655, 237, 190, 58, 632, 193
494, 196, 19, 18, 42, 225, 30, 226, 663, 182, 181
495, 272, 23, 48, 24, 658, 191, 313, 643, 35, 192
496, 272, 48, 23, 47, 313, 191, 658, 312, 59, 193
497, 195, 348, 347, 575, 647, 371, 648, 691, 690, 692
498, 21, 273, 46, 45, 672, 307, 187, 189, 306, 57
499, 2, 25, 269, 49, 173, 656, 282, 61, 175, 281
500, 21, 22, 46, 201, 33, 188, 187, 235, 234, 669
501, 203, 18, 17, 42, 222, 29, 223, 670, 181, 180
502, 25, 269, 1, 2, 656, 634, 37, 173, 282, 38
503, 48, 198, 25, 49, 657, 243, 194, 60, 642, 175
504, 198, 25, 24, 48, 243, 36, 244, 657, 194, 192
505, 15, 2, 1, 575, 172, 38, 26, 693, 679, 637
506, 277, 40, 278, 574, 289, 291, 293, 684, 689, 654
507, 15, 1, 195, 575, 26, 208, 207, 693, 637, 691
508, 3, 197, 109, 575, 215, 629, 112, 694, 635, 625
509, 278, 40, 573, 574, 291, 576, 675, 654, 689, 677
510, 196, 43, 202, 19, 664, 668, 230, 225, 183, 229
511, 20, 204, 44, 202, 232, 674, 186, 228, 233, 671
512, 353, 196, 66, 65, 581, 254, 379, 378, 253, 77
513, 343, 69, 199, 70, 390, 261, 667, 391, 81, 262
514, 343, 271, 92, 93, 666, 334, 419, 418, 333, 104
515, 353, 88, 89, 268, 411, 100, 410, 583, 326, 325
516, 108, 349, 109, 575, 365, 426, 111, 626, 695, 625
517, 94, 95, 340, 270, 106, 422, 423, 338, 337, 621
518, 89, 352, 274, 90, 413, 588, 328, 101, 412, 327
519, 67, 202, 66, 352, 256, 255, 78, 382, 586, 381
520, 64, 354, 65, 203, 375, 376, 76, 251, 595, 252
521, 91, 273, 92, 344, 332, 331, 103, 417, 590, 416
522, 344, 201, 69, 68, 592, 260, 388, 387, 259, 80
523, 354, 87, 88, 275, 409, 99, 408, 599, 324, 323
524, 347, 348, 109, 575, 371, 360, 429, 692, 690, 625
525, 16, 39, 15, 574, 176, 174, 27, 687, 688, 696
526, 340, 198, 72, 71, 619, 266, 397, 396, 265, 83
527, 277, 86, 85, 341, 319, 97, 320, 678, 402, 403
528, 62, 63, 205, 341, 74, 248, 247, 367, 368, 680
529, 85, 277, 341, 574, 320, 678, 403, 661, 684, 650
530, 351, 91, 276, 90, 415, 329, 617, 414, 102, 330
531, 68, 204, 67, 351, 258, 257, 79, 384, 616, 385
532, 21, 44, 20, 204, 185, 186, 32, 231, 674, 232
533, 42, 43, 196, 19, 54, 664, 663, 182, 183, 225
534, 86, 342, 278, 87, 407, 614, 322, 98, 406, 321
535, 206, 342, 63, 64, 622, 372, 249, 250, 373, 75
536, 17, 41, 275, 42, 178, 294, 681, 180, 53, 295
537, 202, 20, 19, 43, 228, 31, 229, 668, 184, 183
538, 43, 44, 202, 20, 55, 671, 668, 184, 186, 228
539, 39, 2, 15, 575, 50, 172, 174, 697, 679, 693
540, 3, 62, 195, 348, 73, 213, 212, 355, 356, 647
541, 339, 94, 272, 93, 420, 335, 602, 421, 105, 336
542, 71, 70, 339, 200, 82, 393, 394, 264, 263, 601
543, 205, 195, 347, 574, 218, 648, 686, 685, 698, 660
544, 1, 197, 195, 575, 209, 211, 208, 637, 635, 691
545, 195, 347, 574, 575, 648, 660, 698, 691, 692, 699
546, 267, 2, 39, 575, 279, 50, 280, 700, 679, 697
547, 15, 195, 574, 575, 207, 698, 696, 693, 691, 699
548, 267, 39, 574, 575, 280, 688, 683, 700, 697, 699
549, 205, 347, 341, 574, 686, 369, 680, 685, 660, 650
550, 85, 267, 277, 574, 284, 290, 320, 661, 683, 684
551, 205, 206, 16, 574, 221, 220, 216, 685, 651, 687
552, 3, 72, 345, 197, 84, 358, 357, 215, 214, 628
553, 16, 206, 573, 574, 220, 676, 578, 687, 651, 677
554, 573, 40, 16, 574, 576, 179, 578, 677, 689, 687
555, 109, 349, 347, 575, 426, 405, 429, 625, 695, 692
556, 267, 85, 4, 349, 284, 96, 285, 682, 362, 361
557, 195, 197, 3, 575, 211, 215, 212, 691, 635, 694
558, 4, 269, 267, 575, 286, 283, 285, 701, 636, 700
559, 574, 39, 15, 575, 688, 174, 696, 699, 697, 693
560, 278, 40, 41, 573, 291, 52, 292, 675, 576, 577
561, 39, 40, 277, 574, 51, 289, 288, 688, 689, 684
562, 350, 95, 4, 269, 364, 107, 363, 644, 287, 286
563, 267, 269, 2, 575, 283, 282, 279, 700, 636, 679
564, 17, 16, 206, 573, 28, 220, 219, 579, 578, 676
565, 205, 16, 15, 574, 216, 27, 217, 685, 687, 696
566, 15, 195, 205, 574, 207, 218, 217, 696, 698, 685
567, 267, 39, 277, 574, 280, 288, 290, 683, 688, 684
568, 275, 573, 41, 17, 702, 577, 294, 681, 579, 178
569, 41, 573, 275, 278, 577, 702, 294, 292, 675, 296
570, 275, 203, 573, 17, 598, 703, 702, 681, 223, 579
571, 573, 203, 275, 278, 703, 598, 702, 675, 613, 296
572, 203, 206, 573, 17, 224, 676, 703, 223, 219, 579
573, 573, 206, 203, 278, 676, 224, 703, 675, 623, 613
574, 343, 272, 199, 271, 646, 633, 667, 666, 314, 631
575, 272, 343, 200, 339, 646, 645, 603, 602, 395, 601
576, 343, 272, 200, 199, 646, 603, 645, 667, 633, 242
577, 273, 343, 199, 271, 640, 667, 665, 311, 666, 631
578, 273, 343, 201, 199, 640, 641, 591, 665, 667, 239
579, 343, 273, 201, 344, 640, 591, 641, 392, 590, 592
580, 196, 275, 353, 268, 662, 639, 581, 584, 299, 583
581, 275, 353, 203, 196, 639, 638, 598, 662, 581, 227
582, 353, 275, 203, 354, 639, 598, 638, 380, 599, 595
583, 89, 352, 268, 274, 413, 582, 325, 328, 588, 302
584, 352, 89, 268, 353, 413, 325, 582, 383, 410, 583
585, 66, 196, 352, 202, 254, 580, 381, 255, 230, 586
586, 196, 66, 352, 353, 254, 381, 580, 581, 379, 383
587, 90, 274, 351, 352, 327, 587, 414, 412, 588, 386
588, 351, 274, 90, 276, 587, 327, 414, 617, 305, 330
589, 67, 202, 351, 204, 256, 585, 385, 257, 233, 616
590, 202, 67, 351, 352, 256, 385, 585, 586, 382, 386
591, 68, 351, 201, 204, 384, 593, 259, 258, 616, 236
592, 201, 351, 68, 344, 593, 384, 259, 592, 389, 387
593, 91, 351, 273, 344, 415, 594, 332, 417, 389, 590
594, 273, 351, 91, 276, 594, 415, 332, 308, 617, 329
595, 4, 575, 350, 269, 701, 627, 363, 286, 636, 644
596, 350, 575, 4, 108, 627, 701, 363, 366, 626, 110
597, 575, 574, 349, 347, 699, 659, 695, 692, 660, 405
598, 349, 574, 575, 267, 659, 699, 695, 682, 683, 700
599, 349, 575, 4, 267, 695, 701, 361, 682, 700, 285
600, 4, 575, 349, 108, 701, 695, 361, 110, 626, 365
601, 348, 575, 3, 109, 690, 694, 355, 360, 625, 112
602, 3, 575, 348, 195, 694, 690, 355, 212, 691, 647
603, 434, 7, 5, 439, 705, 114, 704, 706, 441, 440
604, 6, 434, 5, 10, 436, 704, 113, 121, 437, 432
605, 12, 7, 8, 434, 433, 115, 123, 438, 705, 435
606, 6, 8, 5, 434, 116, 430, 113, 436, 435, 704
607, 434, 8, 5, 7, 435, 430, 704, 705, 115, 114
608, 439, 9, 12, 11, 442, 431, 707, 443, 118, 119
609, 439, 7, 12, 434, 441, 433, 707, 706, 705, 438
610, 12, 7, 439, 11, 433, 441, 707, 119, 124, 443
611, 10, 12, 439, 9, 120, 707, 708, 117, 431, 442
612, 439, 12, 10, 434, 707, 120, 708, 706, 438, 437
613, 439, 5, 10, 9, 440, 432, 708, 442, 122, 117
614, 10, 5, 439, 434, 432, 440, 708, 437, 704, 706
615, 523, 154, 526, 711, 549, 551, 553, 713, 712, 714
616, 154, 155, 526, 711, 166, 552, 551, 712, 715, 714
617, 523, 470, 153, 710, 717, 716, 548, 719, 718, 720
618, 153, 470, 129, 710, 716, 496, 457, 720, 718, 721
619, 474, 149, 527, 709, 723, 532, 722, 725, 724, 726
620, 523, 130, 470, 710, 727, 495, 717, 719, 728, 718
621, 473, 155, 131, 711, 729, 459, 498, 730, 715, 731
622, 153, 129, 154, 710, 457, 455, 165, 720, 721, 732
623, 477, 523, 153, 530, 734, 548, 733, 735, 550, 546
624, 529, 472, 476, 471, 737, 488, 736, 738, 519, 491
625, 524, 523, 477, 530, 570, 734, 739, 547, 550, 735
626, 159, 475, 521, 528, 741, 740, 533, 560, 742, 562
627, 127, 471, 529, 476, 490, 738, 743, 486, 491, 736
628, 473, 526, 155, 711, 744, 552, 729, 730, 714, 715
629, 130, 523, 154, 710, 727, 549, 456, 728, 719, 732
630, 471, 467, 470, 520, 516, 518, 517, 745, 434, 746
631, 471, 472, 467, 520, 519, 514, 516, 745, 747, 434
632, 470, 520, 523, 524, 746, 569, 717, 748, 571, 570
633, 472, 471, 525, 520, 519, 749, 750, 747, 745, 566
634, 468, 467, 472, 520, 512, 514, 513, 751, 434, 747
635, 525, 520, 471, 524, 566, 745, 749, 572, 571, 752
636, 468, 472, 521, 520, 513, 753, 754, 751, 747, 563
637, 471, 520, 470, 524, 745, 746, 517, 752, 571, 748
638, 521, 472, 525, 520, 753, 750, 567, 563, 747, 566
639, 14, 149, 527, 474, 160, 532, 531, 755, 723, 722
640, 126, 529, 476, 127, 756, 736, 487, 138, 743, 486
641, 524, 477, 152, 530, 739, 757, 543, 547, 735, 545
642, 477, 530, 153, 152, 735, 546, 733, 757, 545, 164
643, 475, 159, 158, 528, 741, 170, 758, 742, 560, 559
644, 14, 527, 468, 474, 531, 759, 760, 755, 722, 482
645, 529, 126, 476, 472, 756, 487, 736, 737, 483, 488
646, 129, 130, 154, 710, 141, 456, 455, 721, 728, 732
647, 474, 125, 149, 709, 478, 446, 723, 725, 761, 724
648, 525, 472, 529, 471, 750, 737, 541, 749, 519, 738
649, 153, 477, 470, 523, 733, 497, 716, 548, 734, 717
650, 159, 521, 475, 468, 533, 740, 741, 762, 754, 509
651, 525, 471, 529, 524, 749, 738, 541, 572, 752, 544
652, 524, 477, 523, 470, 739, 734, 570, 748, 497, 717
653, 477, 470, 524, 471, 497, 748, 739, 494, 517, 752
654, 127, 529, 471, 524, 743, 738, 490, 763, 544, 752
655, 473, 130, 470, 523, 499, 495, 500, 764, 727, 717
656, 153, 154, 523, 710, 165, 549, 548, 720, 732, 719
657, 14, 468, 521, 159, 760, 754, 534, 171, 762, 533
658, 127, 471, 128, 524, 490, 489, 139, 763, 752, 765
659, 527, 149, 525, 709, 532, 536, 538, 726, 724, 766
660, 521, 475, 522, 528, 740, 767, 564, 562, 742, 561
661, 522, 133, 156, 157, 768, 462, 555, 556, 465, 168
662, 159, 468, 475, 135, 762, 509, 741, 447, 481, 506
663, 470, 129, 477, 153, 496, 492, 497, 716, 457, 733
664, 477, 128, 471, 524, 493, 489, 494, 739, 765, 752
665, 14, 468, 13, 474, 760, 480, 148, 755, 482, 479
666, 468, 14, 521, 527, 760, 534, 754, 759, 531, 535
667, 529, 525, 150, 472, 541, 537, 539, 737, 750, 769
668, 529, 524, 127, 151, 544, 763, 743, 540, 542, 451
669, 468, 521, 469, 520, 754, 770, 511, 751, 563, 771
670, 473, 523, 470, 520, 764, 717, 500, 772, 569, 746
671, 469, 467, 468, 520, 510, 512, 511, 771, 434, 751
672, 473, 470, 467, 520, 500, 518, 515, 772, 746, 434
673, 130, 129, 470, 710, 141, 496, 495, 728, 721, 718
674, 524, 151, 128, 127, 542, 452, 765, 763, 451, 139
675, 468, 14, 135, 159, 760, 445, 481, 762, 171, 447
676, 468, 13, 135, 14, 480, 147, 481, 760, 148, 445
677, 522, 475, 158, 528, 767, 758, 558, 561, 742, 559
678, 469, 468, 475, 521, 511, 509, 508, 770, 754, 740
679, 474, 14, 125, 13, 755, 444, 478, 479, 148, 136
680, 149, 14, 125, 474, 160, 444, 446, 723, 755, 478
681, 529, 127, 126, 151, 743, 138, 756, 540, 451, 450
682, 475, 135, 158, 159, 506, 466, 758, 741, 447, 170
683, 477, 153, 129, 152, 733, 457, 492, 757, 164, 453
684, 524, 152, 477, 128, 543, 757, 739, 765, 454, 493
685, 475, 158, 135, 134, 758, 466, 506, 507, 464, 146
686, 150, 126, 529, 472, 449, 756, 539, 769, 483, 737
687, 152, 151, 128, 524, 163, 452, 454, 543, 542, 765
688, 125, 126, 150, 472, 137, 449, 448, 484, 483, 769
689, 133, 132, 469, 522, 144, 503, 502, 768, 773, 774
690, 522, 156, 133, 132, 555, 462, 768, 773, 461, 144
691, 134, 475, 158, 522, 507, 758, 464, 775, 767, 558
692, 126, 150, 529, 151, 449, 539, 756, 450, 162, 540
693, 477, 129, 128, 152, 492, 140, 493, 757, 453, 454
694, 469, 521, 522, 520, 770, 564, 774, 771, 563, 565
695, 523, 473, 526, 520, 764, 744, 553, 569, 772, 568
696, 467, 469, 473, 520, 510, 504, 515, 434, 771, 772
697, 522, 132, 469, 473, 773, 503, 774, 776, 501, 504
698, 132, 156, 526, 522, 461, 554, 777, 773, 555, 557
699, 526, 473, 132, 522, 744, 501, 777, 557, 776, 773
700, 522, 158, 133, 157, 558, 463, 768, 556, 169, 465
701, 522, 133, 158, 134, 768, 463, 558, 775, 145, 464
702, 472, 125, 474, 709, 484, 478, 485, 778, 761, 725
703, 475, 134, 469, 522, 507, 505, 508, 767, 775, 774
704, 521, 522, 475, 469, 564, 767, 740, 770, 774, 508
705, 134, 133, 469, 522, 145, 502, 505, 775, 768, 774
706, 523, 526, 473, 711, 553, 744, 764, 713, 714, 730
707, 522, 473, 469, 520, 776, 504, 774, 565, 772, 771
708, 473, 522, 526, 520, 776, 557, 744, 772, 565, 568
709, 132, 155, 131, 473, 460, 459, 143, 501, 729, 498
710, 154, 131, 155, 711, 458, 459, 166, 712, 731, 715
711, 155, 156, 526, 132, 167, 554, 552, 460, 461, 777
712, 155, 132, 526, 473, 460, 777, 552, 729, 501, 744
713, 150, 149, 709, 525, 161, 724, 779, 537, 536, 766
714, 709, 149, 150, 125, 724, 161, 779, 761, 446, 448
715, 709, 472, 150, 525, 778, 769, 779, 766, 750, 537
716, 150, 472, 709, 125, 769, 778, 779, 448, 484, 761
717, 468, 709, 474, 527, 780, 725, 482, 759, 726, 722
718, 474, 709, 468, 472, 725, 780, 482, 485, 778, 513
719, 468, 521, 709, 527, 754, 781, 780, 759, 535, 726
720, 709, 521, 468, 472, 781, 754, 780, 778, 753, 513
721, 521, 525, 709, 527, 567, 766, 781, 535, 538, 726
722, 709, 525, 521, 472, 766, 567, 781, 778, 750, 753
723, 130, 711, 473, 131, 782, 730, 499, 142, 731, 498
724, 711, 130, 473, 523, 782, 499, 730, 713, 727, 764
725, 711, 130, 154, 131, 782, 456, 712, 731, 142, 458
726, 130, 711, 154, 523, 782, 712, 456, 727, 713, 549

** Define element set Eall
*ELSET, ELSET=Eall
Evolumes



***********************************************************
** Element sets for materials and FEM element type (solid, shell, beam, fluid)
*ELSET,ELSET=FEMPart002_MaterialSolid
Evolumes

** Physical constants for SI(mm) unit system with Kelvins
*PHYSICAL CONSTANTS, ABSOLUTE ZERO=0, STEFAN BOLTZMANN=5.670374419e-11

***********************************************************
** Materials
** see information about units at file end
** FreeCAD material name: CalculiX-Steel
** Material (FEMPart (LongPendulum001))
*MATERIAL, NAME=FEMPart002_Material
*ELASTIC
210000,0.3
*DENSITY
7.9E-09
*EXPANSION, ZERO=0
1.2E-05

***********************************************************
** Sections
*SOLID SECTION, ELSET=FEMPart002_MaterialSolid, MATERIAL=FEMPart002_Material

***********************************************************
** At least one step is needed to run an CalculiX analysis of FreeCAD
*STEP, INC=2000
*STATIC
1.0,1.0,1e-05,1.0

***********************************************************
** Automatic 3-2-1 constraints
** nodeXYZ 167: x=-19.7989898732, y=-5, z=28.2010101268
** nodeYZ 164: x=19.7989898732, y=-5, z=28.2010101268
** nodeZ 140: x=19.7989898732, y=5, z=28.2010101268
*BOUNDARY
167,1,1,0
167,2,2,0
167,3,3,0
164,2,2,0
164,3,3,0
140,3,3,0

***********************************************************
** MbDPart D'Alembert element loads
*DLOAD
15,GRAV,14832613.80639,0.1436780527526,4.480057235208E-17,-0.9896244829011
16,GRAV,14508115.10245,0.1013688751763,4.470338292306E-17,-0.994848908702
17,GRAV,13928190.78998,0.07333132491753,4.459527375968E-17,-0.9973076339755
18,GRAV,13226958.89514,0.06831611151957,4.45732462109E-17,-0.9976637253638
19,GRAV,12588150.63599,0.09127231818197,4.467138663401E-17,-0.9958259707066
20,GRAV,12204118.47983,0.138612319083,4.47975756919E-17,-0.9903467195879
21,GRAV,12204118.47838,0.1955303109222,4.481330745809E-17,-0.9806976585628
22,GRAV,12588150.63216,0.2420311711949,4.471305540909E-17,-0.970268474274
23,GRAV,13226958.89015,0.264310450667,4.462741778184E-17,-0.9644376525563
24,GRAV,13928190.78524,0.2594580880114,4.464671799546E-17,-0.9657543686494
25,GRAV,14508115.09912,0.2321767118856,4.473953736429E-17,-0.972673621755
26,GRAV,14832613.8052,0.1905095771927,4.48135162829E-17,-0.9816853370596
27,GRAV,14922821.10462,0.1671409600143,4.481955641829E-17,-0.9859330096338
28,GRAV,14832613.80639,0.1436780527526,4.480057235208E-17,-0.9896244829011
29,GRAV,14508115.10245,0.1013688751763,4.470338292306E-17,-0.994848908702
30,GRAV,13928190.78998,0.07333132491753,4.459527375968E-17,-0.9973076339755
31,GRAV,13226958.89514,0.06831611151957,4.45732462109E-17,-0.9976637253638
32,GRAV,12588150.63599,0.09127231818197,4.467138663401E-17,-0.9958259707066
33,GRAV,12204118.47983,0.138612319083,4.47975756919E-17,-0.9903467195879
34,GRAV,12204118.47838,0.1955303109222,4.481330745809E-17,-0.9806976585628
35,GRAV,12588150.63216,0.2420311711949,4.471305540909E-17,-0.970268474274
36,GRAV,13226958.89015,0.264310450667,4.462741778184E-17,-0.9644376525563
37,GRAV,13928190.78524,0.2594580880114,4.464671799546E-17,-0.9657543686494
38,GRAV,14508115.09912,0.2321767118856,4.473953736429E-17,-0.972673621755
39,GRAV,14832613.8052,0.1905095771927,4.48135162829E-17,-0.9816853370596
40,GRAV,14040318.07851,0.1572376964746,4.481584976722E-17,-0.987560786386
41,GRAV,13904032.52098,0.139778684024,4.479633369068E-17,-0.9901827707512
42,GRAV,13664763.38203,0.1290741646442,4.47777634991E-17,-0.9916349429207
43,GRAV,13383158.65031,0.1282705114163,4.477660052673E-17,-0.9917392176883
44,GRAV,13134404.18853,0.1381713776188,4.479510449585E-17,-0.9904083351865
45,GRAV,12988616.63003,0.1564350822478,4.481700673839E-17,-0.9876882428389
46,GRAV,12988616.62948,0.1778271653552,4.482291937219E-17,-0.9840617354931
47,GRAV,13134404.18706,0.1959669235449,4.481107881195E-17,-0.9806105062033
48,GRAV,13383158.64834,0.2057532383275,4.479801625254E-17,-0.9786039060405
49,GRAV,13664763.3801,0.2049601202156,4.479873788748E-17,-0.9787703250105
50,GRAV,13904032.51959,0.1943750796616,4.481142378201E-17,-0.9809272798768
51,GRAV,14040318.07801,0.1770273881923,4.482131951025E-17,-0.9842059255206
52,GRAV,14040318.07851,0.1572376964746,4.481584976722E-17,-0.987560786386
53,GRAV,13904032.52098,0.139778684024,4.479633369068E-17,-0.9901827707512
54,GRAV,13664763.38203,0.1290741646442,4.47777634991E-17,-0.9916349429207
55,GRAV,13383158.65031,0.1282705114163,4.477660052673E-17,-0.9917392176883
56,GRAV,13134404.18853,0.1381713776188,4.479510449585E-17,-0.9904083351865
57,GRAV,12988616.63003,0.1564350822478,4.481700673839E-17,-0.9876882428389
58,GRAV,12988616.62948,0.1778271653552,4.482291937219E-17,-0.9840617354931
59,GRAV,13134404.18706,0.1959669235449,4.481107881195E-17,-0.9806105062033
60,GRAV,13383158.64834,0.2057532383275,4.479801625254E-17,-0.9786039060405
61,GRAV,13664763.3801,0.2049601202156,4.479873788748E-17,-0.9787703250105
62,GRAV,13904032.51959,0.1943750796616,4.481142378201E-17,-0.9809272798768
63,GRAV,14040318.07801,0.1770273881923,4.482131951025E-17,-0.9842059255206
64,GRAV,14077367.41659,0.1671409599148,4.482078365823E-17,-0.9859330096506
65,GRAV,14077367.41659,0.1671409599148,4.482078365823E-17,-0.9859330096506
66,GRAV,14077367.41659,0.1671409599148,4.482078365823E-17,-0.9859330096506
67,GRAV,8026017.225151,0.2102537733575,4.480590405053E-17,-0.9776468435938
68,GRAV,12673174.88566,0.1944820546091,4.481344802023E-17,-0.9809060762555
69,GRAV,8026017.225151,0.2102537733575,4.480590405053E-17,-0.9776468435938
70,GRAV,3386658.471097,0.2687887576575,4.467449336788E-17,-0.963199150621
71,GRAV,8026017.227353,0.1237060004655,4.478198279958E-17,-0.992318913177
72,GRAV,12673174.88705,0.1396706973747,4.479829851446E-17,-0.99019800863
73,GRAV,8026017.227353,0.1237060004655,4.478198279958E-17,-0.992318913177
74,GRAV,3386658.476316,0.06367982151374,4.461780252998E-17,-0.9979703804883
75,GRAV,3368287.368212,0.1671409543293,4.488965421908E-17,-0.9859330105975
76,GRAV,12668277.93654,0.1671409597193,4.482319307307E-17,-0.9859330096838
77,GRAV,3368287.368212,0.1671409543293,4.488965421908E-17,-0.9859330105975
78,GRAV,12668277.93654,0.1671409597193,4.482319307307E-17,-0.9859330096838
79,GRAV,5232160.501455,0.07346314336091,4.463225607637E-17,-0.9972979326999
80,GRAV,4904401.16104,-0.1101579355669,4.30625986898E-17,-0.993914095499
81,GRAV,4277694.111318,-0.2733427755719,4.039414071938E-17,-0.9619166944402
82,GRAV,3413789.872728,-0.3908085824605,3.767238247204E-17,-0.9204719723464
83,GRAV,2428883.983902,-0.4078700258343,3.724834385776E-17,-0.9130400002332
84,GRAV,1605342.504567,-0.143832800821,4.273891323957E-17,-0.9896020035388
85,GRAV,1605342.489155,0.4619491344436,4.290634781723E-17,-0.8869064196333
86,GRAV,2428883.956072,0.6860007590246,3.755068302024E-17,-0.7276008236785
87,GRAV,3413789.84568,0.6723420056732,3.796623064422E-17,-0.7402406550625
88,GRAV,4277694.089732,0.5750986068031,4.06286445755E-17,-0.8180840986434
89,GRAV,4904401.147257,0.4315769530399,4.321233079284E-17,-0.9020761240631
90,GRAV,5232160.496726,0.2593304314564,4.468362862012E-17,-0.9657886556181
91,GRAV,5341012.640282,0.1671409570412,4.485621578717E-17,-0.9859330101378
92,GRAV,5232160.501455,0.07346314336091,4.463225607637E-17,-0.9972979326999
93,GRAV,4904401.16104,-0.1101579355669,4.30625986898E-17,-0.993914095499
94,GRAV,4277694.111318,-0.2733427755719,4.039414071938E-17,-0.9619166944402
95,GRAV,3413789.872728,-0.3908085824605,3.767238247204E-17,-0.9204719723464
96,GRAV,2428883.983902,-0.4078700258343,3.724834385776E-17,-0.9130400002332
97,GRAV,1605342.504567,-0.143832800821,4.273891323957E-17,-0.9896020035388
98,GRAV,1605342.489155,0.4619491344436,4.290634781723E-17,-0.8869064196333
99,GRAV,2428883.956072,0.6860007590246,3.755068302024E-17,-0.7276008236785
100,GRAV,3413789.84568,0.6723420056732,3.796623064422E-17,-0.7402406550625
101,GRAV,4277694.089732,0.5750986068031,4.06286445755E-17,-0.8180840986434
102,GRAV,4904401.147257,0.4315769530399,4.321233079284E-17,-0.9020761240631
103,GRAV,5232160.496726,0.2593304314564,4.468362862012E-17,-0.9657886556181
104,GRAV,14861749.38161,0.1515401857016,4.480974047597E-17,-0.9884510974841
105,GRAV,14861749.38081,0.18269999505,4.481835284597E-17,-0.9831687097384
106,GRAV,14804419.16306,0.1357763418199,4.478852131215E-17,-0.9907395142024
107,GRAV,14804419.16147,0.1983372936855,4.48058127551E-17,-0.9801338265428
108,GRAV,14588470.59907,0.1076048394534,4.472272790421E-17,-0.9941937429527
109,GRAV,13814325.9298,0.0702694585974,4.458143037331E-17,-0.9975280463167
110,GRAV,14428336.35629,0.09505964840137,4.468203629114E-17,-0.9954715783215
111,GRAV,14042184.77473,0.0763428328205,4.46084824383E-17,-0.9970816274894
112,GRAV,13107003.61727,0.06981070153225,4.458048451898E-17,-0.9975602568024
113,GRAV,13346943.32731,0.06684824071719,4.456604066355E-17,-0.9977631546179
114,GRAV,12680678.49277,0.08505585714042,4.464726956434E-17,-0.9963761845639
115,GRAV,12239512.66324,0.1291822445856,4.478057940817E-17,-0.9916208689231
116,GRAV,12496120.30232,0.09757695768907,4.469408133867E-17,-0.995227982589
117,GRAV,12169835.75322,0.1861359458204,4.48210953609E-17,-0.9825239995407
118,GRAV,12169835.75419,0.1480837250094,4.481057797225E-17,-0.9889748279847
119,GRAV,12680678.48862,0.2480816441581,4.469232884078E-17,-0.9687391278522
120,GRAV,12239512.66131,0.204853440018,4.480149443897E-17,-0.9787926583873
121,GRAV,12496120.2988,0.2358817010702,4.473230787824E-17,-0.9717817775099
122,GRAV,13107003.61236,0.2628652655289,4.463384355519E-17,-0.9648325513675
123,GRAV,14042184.77014,0.2565403525878,4.465828786939E-17,-0.9665335211436
124,GRAV,13346943.32225,0.2657290781819,4.462101004385E-17,-0.9640477462287
125,GRAV,13814325.92491,0.2624215245004,4.463453996401E-17,-0.9649533374619
126,GRAV,14428336.35264,0.2383386474483,4.472163768116E-17,-0.9711821091497
127,GRAV,14588470.59605,0.2260732354232,4.475547180367E-17,-0.9741103080377
128,GRAV,14692997.30894,0.1459600882702,4.480373081243E-17,-0.9892904794003
129,GRAV,14688132.271,0.1883396493452,4.481535839174E-17,-0.9821039540112
130,GRAV,14577376.67625,0.1672296576993,4.482006499183E-17,-0.9859179689943
131,GRAV,14164810.10918,0.1550053950302,4.481391254024E-17,-0.9879136235074
132,GRAV,14159932.31711,0.1793465435156,4.48205941831E-17,-0.9837859611364
133,GRAV,14295558.7814,0.1672314062097,4.482047785028E-17,-0.9859176724134
134,GRAV,14395328.10503,0.1079759635155,4.472411151871E-17,-0.994153504899
135,GRAV,14444055.4135,0.1306480854104,4.477967208711E-17,-0.9914288062078
136,GRAV,13875447.88387,0.08365573329151,4.463956892962E-17,-0.9964947156345
137,GRAV,14070385.25457,0.1026874917258,4.470829725064E-17,-0.9947136668625
138,GRAV,13254182.25489,0.0792822342129,4.462245010277E-17,-0.9968522093762
139,GRAV,13555991.52878,0.08985453447806,4.466434896286E-17,-0.9959548998995
140,GRAV,12682170.24819,0.09983477222247,4.470135437205E-17,-0.9950040292659
141,GRAV,13015727.7175,0.09689555943552,4.469075930933E-17,-0.995294554673
142,GRAV,12345357.93486,0.1422109254916,4.480268414947E-17,-0.9898363767163
143,GRAV,12603110.25286,0.125477443976,4.477210981802E-17,-0.9920964726544
144,GRAV,12351093.80569,0.1920399294127,4.48163582511E-17,-0.9813871129739
145,GRAV,12458068.23575,0.1672274485089,4.482362296522E-17,-0.9859183437107
146,GRAV,12683147.4261,0.2332950380231,4.473942746464E-17,-0.9724059981478
147,GRAV,12609966.1329,0.2081904731163,4.479556743049E-17,-0.9780883022016
148,GRAV,13250930.84832,0.2539732114413,4.46695765371E-17,-0.9672112529692
149,GRAV,13013369.11244,0.236461308932,4.472961788122E-17,-0.9716409055706
150,GRAV,13874770.65493,0.2494909716224,4.468521781052E-17,-0.9683771244091
151,GRAV,13552017.72697,0.2437371343495,4.470571773616E-17,-0.9698413320431
152,GRAV,14394526.88453,0.22572764759,4.475660895298E-17,-0.9741904480714
153,GRAV,14068895.13027,0.2309529685967,4.474355450776E-17,-0.9729649152443
154,GRAV,14438405.78062,0.2035241676373,4.479962353957E-17,-0.9790699225222
155,GRAV,13992724.40426,0.1336094440663,4.478590528708E-17,-0.991034064226
156,GRAV,14195572.81885,0.1398479883242,4.479598904424E-17,-0.9901729849686
157,GRAV,13700400.67567,0.1208498176692,4.475961941422E-17,-0.9926708022146
158,GRAV,13915880.90691,0.1194268023992,4.475583554305E-17,-0.9928430081683
159,GRAV,13358794.74851,0.1192364043426,4.475628226362E-17,-0.9928658921926
160,GRAV,13536961.17832,0.1105064020502,4.473281153071E-17,-0.9938754122655
161,GRAV,13046573.34594,0.1310705030749,4.478274974418E-17,-0.9913730494742
162,GRAV,13141441.79138,0.1160714438256,4.474865613903E-17,-0.9932408670248
163,GRAV,12868437.58676,0.1540565844177,4.48152699319E-17,-0.9880620267967
164,GRAV,12841910.41247,0.1371389033191,4.479395629448E-17,-0.990551826608
165,GRAV,12874161.69045,0.1802736703239,4.482245862209E-17,-0.9836164922306
166,GRAV,12739886.13069,0.1672255353551,4.482308098649E-17,-0.9859186682101
167,GRAV,13047706.33596,0.2026183442967,4.480313772258E-17,-0.9792577835047
168,GRAV,12848813.93646,0.1966827997663,4.481082313158E-17,-0.9804671724622
169,GRAV,13355389.93046,0.214928303921,4.47821265427E-17,-0.9766298296559
170,GRAV,13139105.75424,0.2176770442043,4.477695269654E-17,-0.9760208524547
171,GRAV,13699698.01504,0.2131139342051,4.478501978429E-17,-0.9770273542986
172,GRAV,13532893.98271,0.2235498484648,4.476321791349E-17,-0.9746924977917
173,GRAV,13991916.56073,0.2004974319137,4.480436725122E-17,-0.9796942277037
174,GRAV,13914374.97507,0.2145316046557,4.478198064998E-17,-0.9767170473601
175,GRAV,14189907.27252,0.1944230512373,4.481093454716E-17,-0.9809177728778
176,GRAV,14692997.30894,0.1459600882702,4.480373081243E-17,-0.9892904794003
177,GRAV,14688132.271,0.1883396493452,4.481535839174E-17,-0.9821039540112
178,GRAV,14577376.67625,0.1672296576993,4.482006499183E-17,-0.9859179689943
179,GRAV,14164810.10918,0.1550053950302,4.481391254024E-17,-0.9879136235074
180,GRAV,14159932.31711,0.1793465435156,4.48205941831E-17,-0.9837859611364
181,GRAV,14295558.7814,0.1672314062097,4.482047785028E-17,-0.9859176724134
182,GRAV,14395328.10503,0.1079759635155,4.472411151871E-17,-0.994153504899
183,GRAV,14444055.4135,0.1306480854104,4.477967208711E-17,-0.9914288062078
184,GRAV,13875447.88387,0.08365573329151,4.463956892962E-17,-0.9964947156345
185,GRAV,14070385.25457,0.1026874917258,4.470829725064E-17,-0.9947136668625
186,GRAV,13254182.25489,0.0792822342129,4.462245010277E-17,-0.9968522093762
187,GRAV,13555991.52878,0.08985453447806,4.466434896286E-17,-0.9959548998995
188,GRAV,12682170.24819,0.09983477222247,4.470135437205E-17,-0.9950040292659
189,GRAV,13015727.7175,0.09689555943552,4.469075930933E-17,-0.995294554673
190,GRAV,12345357.93486,0.1422109254916,4.480268414947E-17,-0.9898363767163
191,GRAV,12603110.25286,0.125477443976,4.477210981802E-17,-0.9920964726544
192,GRAV,12351093.80569,0.1920399294127,4.48163582511E-17,-0.9813871129739
193,GRAV,12458068.23575,0.1672274485089,4.482362296522E-17,-0.9859183437107
194,GRAV,12683147.4261,0.2332950380231,4.473942746464E-17,-0.9724059981478
195,GRAV,12609966.1329,0.2081904731163,4.479556743049E-17,-0.9780883022016
196,GRAV,13250930.84832,0.2539732114413,4.46695765371E-17,-0.9672112529692
197,GRAV,13013369.11244,0.236461308932,4.472961788122E-17,-0.9716409055706
198,GRAV,13874770.65493,0.2494909716224,4.468521781052E-17,-0.9683771244091
199,GRAV,13552017.72697,0.2437371343495,4.470571773616E-17,-0.9698413320431
200,GRAV,14394526.88453,0.22572764759,4.475660895298E-17,-0.9741904480714
201,GRAV,14068895.13027,0.2309529685967,4.474355450776E-17,-0.9729649152443
202,GRAV,14438405.78062,0.2035241676373,4.479962353957E-17,-0.9790699225222
203,GRAV,13992724.40426,0.1336094440663,4.478590528708E-17,-0.991034064226
204,GRAV,14195572.81885,0.1398479883242,4.479598904424E-17,-0.9901729849686
205,GRAV,13700400.67567,0.1208498176692,4.475961941422E-17,-0.9926708022146
206,GRAV,13915880.90691,0.1194268023992,4.475583554305E-17,-0.9928430081683
207,GRAV,13358794.74851,0.1192364043426,4.475628226362E-17,-0.9928658921926
208,GRAV,13536961.17832,0.1105064020502,4.473281153071E-17,-0.9938754122655
209,GRAV,13046573.34594,0.1310705030749,4.478274974418E-17,-0.9913730494742
210,GRAV,13141441.79138,0.1160714438256,4.474865613903E-17,-0.9932408670248
211,GRAV,12868437.58676,0.1540565844177,4.48152699319E-17,-0.9880620267967
212,GRAV,12841910.41247,0.1371389033191,4.479395629448E-17,-0.990551826608
213,GRAV,12874161.69045,0.1802736703239,4.482245862209E-17,-0.9836164922306
214,GRAV,12739886.13069,0.1672255353551,4.482308098649E-17,-0.9859186682101
215,GRAV,13047706.33596,0.2026183442967,4.480313772258E-17,-0.9792577835047
216,GRAV,12848813.93646,0.1966827997663,4.481082313158E-17,-0.9804671724622
217,GRAV,13355389.93046,0.214928303921,4.47821265427E-17,-0.9766298296559
218,GRAV,13139105.75424,0.2176770442043,4.477695269654E-17,-0.9760208524547
219,GRAV,13699698.01504,0.2131139342051,4.478501978429E-17,-0.9770273542986
220,GRAV,13532893.98271,0.2235498484648,4.476321791349E-17,-0.9746924977917
221,GRAV,13991916.56073,0.2004974319137,4.480436725122E-17,-0.9796942277037
222,GRAV,13914374.97507,0.2145316046557,4.478198064998E-17,-0.9767170473601
223,GRAV,14189907.27252,0.1944230512373,4.481093454716E-17,-0.9809177728778
224,GRAV,14046518.15805,0.1571255730665,4.481575790891E-17,-0.9875786319522
225,GRAV,14046518.15754,0.1771391285546,4.482128952645E-17,-0.9841858204297
226,GRAV,14071049.63033,0.1705471369653,4.482146759847E-17,-0.9853495187358
227,GRAV,14071049.6305,0.1637327867811,4.481958415607E-17,-0.986504726057
228,GRAV,14047952.6127,0.1575458410889,4.481606110175E-17,-0.9875116748452
229,GRAV,14047952.61221,0.1767202741368,4.482136079125E-17,-0.9842611161216
230,GRAV,14072524.06514,0.1641511823334,4.481975909717E-17,-0.9864351926703
231,GRAV,14072524.06499,0.1701292013094,4.482141138303E-17,-0.9854217649625
232,GRAV,13902864.404,0.1390459075436,4.479520380876E-17,-0.9902859362807
233,GRAV,13977585.1264,0.1451819131061,4.480380929288E-17,-0.9894049788165
234,GRAV,14030477.7034,0.1516059164104,4.481102123375E-17,-0.9884410180225
235,GRAV,13664548.71185,0.128583927704,4.477677146328E-17,-0.9916986303995
236,GRAV,13789504.23712,0.132481619192,4.478415873891E-17,-0.9911854622503
237,GRAV,13381747.45879,0.127807746052,4.477564961724E-17,-0.9917989615084
238,GRAV,13522844.64049,0.1268008077369,4.477330406094E-17,-0.9919282006059
239,GRAV,13130012.87736,0.1378200498814,4.479454704935E-17,-0.9904572852227
240,GRAV,13246907.57623,0.1315280973523,4.478327141018E-17,-0.99131244298
241,GRAV,12982451.41197,0.1563039290113,4.481691677397E-17,-0.9877090066288
242,GRAV,13039605.89285,0.1462792853166,4.480675791725E-17,-0.9892433323947
243,GRAV,12982451.41142,0.1779578340911,4.482290177368E-17,-0.9840381137363
244,GRAV,12962899.44848,0.1671409597637,4.482264598561E-17,-0.9859330096762
245,GRAV,13130012.87587,0.1963147547595,4.481071460847E-17,-0.9805409308457
246,GRAV,13039605.89179,0.1879280613369,4.481826937032E-17,-0.9821827954928
247,GRAV,13381747.4568,0.2062098383151,4.479731944971E-17,-0.978507793828
248,GRAV,13246907.57442,0.2025370046204,4.480289781407E-17,-0.979274609984
249,GRAV,13664548.70989,0.2054439566314,4.479801507925E-17,-0.9786688820452
250,GRAV,13522844.63845,0.2072031113761,4.479552673885E-17,-0.9782979457384
251,GRAV,13902864.40257,0.1951009155587,4.481069705114E-17,-0.9807831731571
252,GRAV,13789504.23536,0.2015949080348,4.480326120586E-17,-0.9794689852438
253,GRAV,13977585.12529,0.18901739656,4.481592513753E-17,-0.9819737388534
254,GRAV,14030477.70261,0.1826346146792,4.481959736564E-17,-0.9831808569744
255,GRAV,13902864.404,0.1390459075436,4.479520380876E-17,-0.9902859362807
256,GRAV,13977585.1264,0.1451819131061,4.480380929288E-17,-0.9894049788165
257,GRAV,14031878.74179,0.1520275911677,4.481143197345E-17,-0.9883762499796
258,GRAV,13664548.71185,0.128583927704,4.477677146328E-17,-0.9916986303995
259,GRAV,13789504.23712,0.132481619192,4.478415873891E-17,-0.9911854622503
260,GRAV,13381747.45879,0.127807746052,4.477564961724E-17,-0.9917989615084
261,GRAV,13522844.64049,0.1268008077369,4.477330406094E-17,-0.9919282006059
262,GRAV,13130012.87736,0.1378200498814,4.479454704935E-17,-0.9904572852227
263,GRAV,13246907.57623,0.1315280973523,4.478327141018E-17,-0.99131244298
264,GRAV,12982451.41197,0.1563039290113,4.481691677397E-17,-0.9877090066288
265,GRAV,13039605.89285,0.1462792853166,4.480675791725E-17,-0.9892433323947
266,GRAV,12982451.41142,0.1779578340911,4.482290177368E-17,-0.9840381137363
267,GRAV,12962899.44848,0.1671409597637,4.482264598561E-17,-0.9859330096762
268,GRAV,13130012.87587,0.1963147547595,4.481071460847E-17,-0.9805409308457
269,GRAV,13039605.89179,0.1879280613369,4.481826937032E-17,-0.9821827954928
270,GRAV,13381747.4568,0.2062098383151,4.479731944971E-17,-0.978507793828
271,GRAV,13246907.57442,0.2025370046204,4.480289781407E-17,-0.979274609984
272,GRAV,13664548.70989,0.2054439566314,4.479801507925E-17,-0.9786688820452
273,GRAV,13522844.63845,0.2072031113761,4.479552673885E-17,-0.9782979457384
274,GRAV,13902864.40257,0.1951009155587,4.481069705114E-17,-0.9807831731571
275,GRAV,13789504.23536,0.2015949080348,4.480326120586E-17,-0.9794689852438
276,GRAV,13977585.12529,0.18901739656,4.481592513753E-17,-0.9819737388534
277,GRAV,14031878.74102,0.1822151535948,4.481977562082E-17,-0.9832586830537
278,GRAV,14072524.06514,0.1641511823334,4.481975909717E-17,-0.9864351926703
279,GRAV,14072524.06499,0.1701292013094,4.482141138303E-17,-0.9854217649625
280,GRAV,14054483.86526,0.1760320873819,4.482145380948E-17,-0.9843844290784
281,GRAV,14055925.04157,0.175613499333,4.482150358316E-17,-0.9844591910547
282,GRAV,14054483.86572,0.1582362187692,4.481653514628E-17,-0.9874012857342
283,GRAV,14055925.042,0.1586560594035,4.481681665624E-17,-0.9873339125213
284,GRAV,6477869.758772,0.2205095551406,4.479472415159E-17,-0.9753848143639
285,GRAV,9574763.633592,0.2033020039936,4.481066508594E-17,-0.9791160784974
286,GRAV,6477869.7615,0.1132777116592,4.476508595218E-17,-0.9935633648848
287,GRAV,9574763.635438,0.1307535899982,4.479061316992E-17,-0.9914148973576
288,GRAV,6469349.984772,0.1850089333546,4.484382390696E-17,-0.9827368389243
289,GRAV,9569001.581398,0.1550296908914,4.482427220482E-17,-0.9879098111377
290,GRAV,6469349.984772,0.1850089333546,4.484382390696E-17,-0.9827368389243
291,GRAV,9569001.581398,0.1550296908914,4.482427220482E-17,-0.9879098111377
292,GRAV,3376464.642498,0.235312223846,4.479989240525E-17,-0.9719198307004
293,GRAV,3368287.368212,0.1671409543293,4.488965421908E-17,-0.9859330105975
294,GRAV,3368287.368212,0.1671409543293,4.488965421908E-17,-0.9859330105975
295,GRAV,3376464.645987,0.09816010571484,4.476198441012E-17,-0.995170635442
296,GRAV,12670454.59187,0.1853866215974,4.482054382183E-17,-0.9826656606052
297,GRAV,12668277.93654,0.1671409597193,4.482319307307E-17,-0.9859330096838
298,GRAV,12668277.93654,0.1671409597193,4.482319307307E-17,-0.9859330096838
299,GRAV,12670454.5928,0.1488378715939,4.481044198296E-17,-0.9888616121477
300,GRAV,5263193.871717,0.1052240596852,4.475253919988E-17,-0.9944485392736
301,GRAV,5263193.868583,0.2284049655301,4.478658562366E-17,-0.9735662133215
302,GRAV,5206508.290588,0.04128050430795,4.446453394209E-17,-0.9991475966863
303,GRAV,5206508.284252,0.2903245671519,4.453336814718E-17,-0.9569282343562
304,GRAV,4824044.573299,-0.1407584270254,4.265552052253E-17,-0.9900439713575
305,GRAV,4989271.162896,-0.08047117004421,4.341724044511E-17,-0.996756936666
306,GRAV,4149720.667592,-0.2988594542333,3.986221984798E-17,-0.9542971374867
307,GRAV,4408523.957771,-0.2491469524618,4.086866260471E-17,-0.9684656917408
308,GRAV,3576363.778448,-0.3775038196903,3.801578900621E-17,-0.9260080270274
309,GRAV,2595987.944469,-0.4195728921501,3.691482605998E-17,-0.907721646857
310,GRAV,3251995.694916,-0.4053467158805,3.728569041706E-17,-0.9141630269951
311,GRAV,1519654.436852,-0.05013118899155,4.387973086036E-17,-0.9987426414699
312,GRAV,2262240.635288,-0.3943575951921,3.762348129305E-17,-0.9189570648917
313,GRAV,1703769.582941,-0.2263332656616,4.140181927262E-17,-0.9740499231841
314,GRAV,1519654.425998,0.3764954021622,4.399764797484E-17,-0.9264184865117
315,GRAV,2262240.608076,0.6751934401005,3.791909866151E-17,-0.7376407109462
316,GRAV,1703769.563579,0.5347144719052,4.16121683636E-17,-0.8450328002718
317,GRAV,3251995.667201,0.6839885617694,3.758677588563E-17,-0.7294927329101
318,GRAV,2595987.916105,0.6952969407894,3.72229691986E-17,-0.7187225919149
319,GRAV,4408523.937327,0.554413073422,4.10907615329E-17,-0.8322416379987
320,GRAV,3576363.752011,0.6616051801114,3.830299222297E-17,-0.7498523759046
321,GRAV,4149720.644808,0.5966783620532,4.010974086566E-17,-0.8024804871506
322,GRAV,4824044.558035,0.4591922138269,4.282134309293E-17,-0.8883369353802
323,GRAV,4989271.150558,0.4044857948457,4.355127948751E-17,-0.9145442809225
324,GRAV,5064426.000817,0.07904618666129,4.465865119774E-17,-0.996870954725
325,GRAV,4941742.401584,0.2497185660084,4.47241233549E-17,-0.9683184588712
326,GRAV,4803890.371867,0.1605190904556,4.485976093679E-17,-0.9870327358296
327,GRAV,4648917.616201,-0.07949963984813,4.343269042433E-17,-0.9968348946862
328,GRAV,4678717.816056,0.01995021723125,4.433452302442E-17,-0.9998009746107
329,GRAV,4169206.694401,-0.2433455644846,4.098266746618E-17,-0.9699396559816
330,GRAV,4249009.043932,-0.1325738203444,4.27773811883E-17,-0.9911731343006
331,GRAV,3336376.302644,-0.3119112602122,3.959420226098E-17,-0.9501112386204
332,GRAV,3691107.438292,-0.2294523434493,4.124905080084E-17,-0.9733198970974
333,GRAV,2467903.137465,-0.3451929459403,3.885729187702E-17,-0.9385317416439
334,GRAV,2895472.330279,-0.2664313872136,4.056725389411E-17,-0.9638538872191
335,GRAV,1859774.616681,-0.05811849176815,4.376197688285E-17,-0.9983096918865
336,GRAV,2267359.385639,-0.16640322908,4.235200267347E-17,-0.986057790067
337,GRAV,1984031.293265,0.4431003852847,4.314595859231E-17,-0.8964720009909
338,GRAV,2146665.695739,0.2368009519712,4.484722183564E-17,-0.9715581861863
339,GRAV,2503426.568972,0.5973991109082,4.013998738842E-17,-0.8019440767822
340,GRAV,3493208.616995,0.5887719171483,4.031896777074E-17,-0.8082992203247
341,GRAV,3103459.11377,0.5173106784084,4.187143857579E-17,-0.8557976758584
342,GRAV,4092453.146417,0.5294161692121,4.161351304474E-17,-0.8483622573976
343,GRAV,4756342.965992,0.4158363471295,4.341707052643E-17,-0.9094394605503
344,GRAV,4293055.987803,0.4419700663913,4.307913754181E-17,-0.8970297990669
345,GRAV,4655445.322005,0.322902182205,4.432987297719E-17,-0.9464323434495
346,GRAV,3808061.25541,0.2740709716453,4.463977073311E-17,-0.9617094688633
347,GRAV,3940719.488813,0.1288387357825,4.48323539974E-17,-0.9916655586245
348,GRAV,3265732.374502,0.336506599592,4.42536279611E-17,-0.9416811076108
349,GRAV,2980698.657682,0.0276037571893,4.442298412779E-17,-0.9996189436926
350,GRAV,2802967.164158,0.2205663417145,4.485631548592E-17,-0.9753719746346
351,GRAV,3566635.259035,0.007574936003521,4.426637251942E-17,-0.9999713097607
352,GRAV,4180992.998134,0.3403008351184,4.420241106122E-17,-0.9403166177505
353,GRAV,4395378.526298,0.1055959081032,4.476512339602E-17,-0.9944091231439
354,GRAV,2726560.599574,-0.1088689826222,4.312852588342E-17,-0.9940561073817
355,GRAV,3781014.085638,-0.1046498764108,4.315004983546E-17,-0.9945091268396
356,GRAV,5064426.000817,0.07904618666129,4.465865119774E-17,-0.996870954725
357,GRAV,4941742.401584,0.2497185660084,4.47241233549E-17,-0.9683184588712
358,GRAV,4803890.371867,0.1605190904556,4.485976093679E-17,-0.9870327358296
359,GRAV,4648917.616201,-0.07949963984813,4.343269042433E-17,-0.9968348946862
360,GRAV,4678717.816056,0.01995021723125,4.433452302442E-17,-0.9998009746107
361,GRAV,4169206.694401,-0.2433455644846,4.098266746618E-17,-0.9699396559816
362,GRAV,4249009.043932,-0.1325738203444,4.27773811883E-17,-0.9911731343006
363,GRAV,3336376.302644,-0.3119112602122,3.959420226098E-17,-0.9501112386204
364,GRAV,3691107.438292,-0.2294523434493,4.124905080084E-17,-0.9733198970974
365,GRAV,2467903.137465,-0.3451929459403,3.885729187702E-17,-0.9385317416439
366,GRAV,2895472.330279,-0.2664313872136,4.056725389411E-17,-0.9638538872191
367,GRAV,1859774.616681,-0.05811849176815,4.376197688285E-17,-0.9983096918865
368,GRAV,2267359.385639,-0.16640322908,4.235200267347E-17,-0.986057790067
369,GRAV,1984031.293265,0.4431003852847,4.314595859231E-17,-0.8964720009909
370,GRAV,2146665.695739,0.2368009519712,4.484722183564E-17,-0.9715581861863
371,GRAV,2503426.568972,0.5973991109082,4.013998738842E-17,-0.8019440767822
372,GRAV,3493208.616995,0.5887719171483,4.031896777074E-17,-0.8082992203247
373,GRAV,3103459.11377,0.5173106784084,4.187143857579E-17,-0.8557976758584
374,GRAV,4092453.146417,0.5294161692121,4.161351304474E-17,-0.8483622573976
375,GRAV,4756342.965992,0.4158363471295,4.341707052643E-17,-0.9094394605503
376,GRAV,4293055.987803,0.4419700663913,4.307913754181E-17,-0.8970297990669
377,GRAV,4655445.322005,0.322902182205,4.432987297719E-17,-0.9464323434495
378,GRAV,3808061.25541,0.2740709716453,4.463977073311E-17,-0.9617094688633
379,GRAV,3940719.488813,0.1288387357825,4.48323539974E-17,-0.9916655586245
380,GRAV,3265732.374502,0.336506599592,4.42536279611E-17,-0.9416811076108
381,GRAV,2980698.657682,0.0276037571893,4.442298412779E-17,-0.9996189436926
382,GRAV,2802967.164158,0.2205663417145,4.485631548592E-17,-0.9753719746346
383,GRAV,3566635.259035,0.007574936003521,4.426637251942E-17,-0.9999713097607
384,GRAV,4180992.998134,0.3403008351184,4.420241106122E-17,-0.9403166177505
385,GRAV,4395378.526298,0.1055959081032,4.476512339602E-17,-0.9944091231439
386,GRAV,2726560.599574,-0.1088689826222,4.312852588342E-17,-0.9940561073817
387,GRAV,3781014.085638,-0.1046498764108,4.315004983546E-17,-0.9945091268396
388,GRAV,13987886.43782,0.07967590249542,4.462291185678E-17,-0.9968208216934
389,GRAV,13816731.66441,0.07516439347768,4.460364658242E-17,-0.9971711557968
390,GRAV,12957541.33508,0.1316597039562,4.478403541954E-17,-0.9912949724245
391,GRAV,12798275.0882,0.158277323865,4.481869292905E-17,-0.9873946975501
392,GRAV,12959245.9388,0.2018472006902,4.480434216989E-17,-0.9794170243433
393,GRAV,13416301.87979,0.1142565491954,4.474338765639E-17,-0.9934512776004
394,GRAV,13775887.56485,0.2153631960891,4.478057540002E-17,-0.9765340207951
395,GRAV,14247918.36048,0.1909341148027,4.481401344028E-17,-0.9816028544195
396,GRAV,12833921.95233,0.1345741505548,4.47895958946E-17,-0.9909035260824
397,GRAV,14190008.82292,0.1981134568307,4.480696583398E-17,-0.9801790949733
398,GRAV,12773377.73782,0.1427117278347,4.480256048465E-17,-0.9897642965567
399,GRAV,13515508.04976,0.1086454649202,4.472746492208E-17,-0.9940805616007
400,GRAV,12839955.20869,0.1990131794237,4.480816112523E-17,-0.9799968134722
401,GRAV,12716285.97865,0.165574926022,4.482261291629E-17,-0.9861972134785
402,GRAV,14001915.27228,0.2126706682635,4.478536270966E-17,-0.9771239362846
403,GRAV,13630847.68589,0.1094557166668,4.47296366146E-17,-0.9939916730481
404,GRAV,12782873.48484,0.1912939261166,4.481616609336E-17,-0.9815327981432
405,GRAV,12720911.6888,0.1745452692787,4.482387633507E-17,-0.9846491501913
406,GRAV,13902321.61354,0.2168284985808,4.477743002653E-17,-0.9762097122049
407,GRAV,14065751.20882,0.2013677304282,4.480312671047E-17,-0.9795157156178
408,GRAV,14154554.45324,0.1670643493639,4.482064422429E-17,-0.9859459940441
409,GRAV,14140625.51541,0.1780275465828,4.482096231036E-17,-0.9840255040687
410,GRAV,14141880.96669,0.1711525230246,4.482142290836E-17,-0.9852445452081
411,GRAV,13489720.20934,0.2411741524344,4.471420401485E-17,-0.9704818536158
412,GRAV,14529845.45772,0.1731915302735,4.482093780928E-17,-0.9848881631137
413,GRAV,13262357.92664,0.1238892893683,4.476739455361E-17,-0.9922960465405
414,GRAV,13262357.92664,0.1238892893683,4.476739455361E-17,-0.9922960465405
415,GRAV,13153982.34057,0.2058742186031,4.479822892514E-17,-0.9785784619102
416,GRAV,13153982.34057,0.2058742186031,4.479822892514E-17,-0.9785784619102
417,GRAV,14371015.01896,0.2057357934815,4.479647652637E-17,-0.9786075736885
418,GRAV,13994768.01459,0.230534114717,4.474480319669E-17,-0.9730642434863
419,GRAV,14222245.66551,0.1753649359881,4.482127691997E-17,-0.9845034988388
420,GRAV,14123752.99298,0.1826360511292,4.481945319931E-17,-0.98318059014
421,GRAV,13469642.87093,0.1204441290637,4.475902954031E-17,-0.9927201074694
422,GRAV,13469642.87093,0.1204441290637,4.475902954031E-17,-0.9927201074694
423,GRAV,13584578.14012,0.2128011055251,4.478579045051E-17,-0.9770955375434
424,GRAV,13584578.14012,0.2128011055251,4.478579045051E-17,-0.9770955375434
425,GRAV,14126358.43172,0.1513631723574,4.48106323343E-17,-0.9884782193118
426,GRAV,13905904.90205,0.1229151586724,4.476411961264E-17,-0.9924171823223
427,GRAV,13905904.90205,0.1229151586724,4.476411961264E-17,-0.9924171823223
428,GRAV,14122703.89208,0.1829486021393,4.481931503201E-17,-0.9831224791323
429,GRAV,13874653.74811,0.1146711229818,4.474374474719E-17,-0.9934035099365
430,GRAV,13784192.88634,0.2085179767748,4.479296928811E-17,-0.9780185342629
431,GRAV,13263484.48914,0.2488079556543,4.468868605935E-17,-0.9685528386222
432,GRAV,13784192.88634,0.2085179767748,4.479296928811E-17,-0.9780185342629
433,GRAV,13784722.22585,0.1255031542881,4.477009173315E-17,-0.9920932205512
434,GRAV,13784722.22585,0.1255031542881,4.477009173315E-17,-0.9920932205512
435,GRAV,14615918.80311,0.1872382480161,4.481620939679E-17,-0.9823145313391
436,GRAV,14337972.51306,0.222461077055,4.47644976921E-17,-0.9749415721958
437,GRAV,13848616.45517,0.2444687635956,4.470278472192E-17,-0.9696571680888
438,GRAV,14094800.32554,0.1443994315237,4.480261083692E-17,-0.9895194814533
439,GRAV,12979563.10505,0.1017746893112,4.470717766976E-17,-0.9948074751507
440,GRAV,12670476.44804,0.123213273813,4.476693890423E-17,-0.9923802140089
441,GRAV,13085864.74834,0.2356659757502,4.473184418208E-17,-0.9718341154095
442,GRAV,14225695.51688,0.1731480380301,4.482138658862E-17,-0.9848958101882
443,GRAV,13135836.23002,0.1213317885446,4.476172017229E-17,-0.9926120073264
444,GRAV,13135836.23002,0.1213317885446,4.476172017229E-17,-0.9926120073264
445,GRAV,13198917.12716,0.2150049977449,4.478224723467E-17,-0.9766129483806
446,GRAV,13198917.12716,0.2150049977449,4.478224723467E-17,-0.9766129483806
447,GRAV,12608733.59769,0.1314142719667,4.478421971299E-17,-0.9913275387698
448,GRAV,12978538.59188,0.2314353653628,4.474405912978E-17,-0.9728502822425
449,GRAV,13090125.84251,0.09795042204434,4.469425199168E-17,-0.9951912955916
450,GRAV,14428109.68326,0.1986271396977,4.480600823936E-17,-0.9800751294546
451,GRAV,13606828.06407,0.2400764595682,4.471750249804E-17,-0.9707539819961
452,GRAV,12500233.60106,0.162669857929,4.482182105638E-17,-0.9866805548511
453,GRAV,12676432.33312,0.2102153146717,4.479203245787E-17,-0.9776551137684
454,GRAV,14093518.78875,0.2263202439643,4.475559091331E-17,-0.9740529488544
455,GRAV,12618202.89475,0.2024651195862,4.48041430817E-17,-0.9792894747473
456,GRAV,12504527.5006,0.1718008193323,4.482429598855E-17,-0.9851317061575
457,GRAV,13494048.01885,0.2194841136116,4.477249846087E-17,-0.9756160740128
458,GRAV,13494048.01885,0.2194841136116,4.477249846087E-17,-0.9756160740128
459,GRAV,14024751.61758,0.1949563120022,4.481065354415E-17,-0.9808119271351
460,GRAV,14306181.82353,0.1773230546509,4.482086066245E-17,-0.9841526986648
461,GRAV,13914934.2967,0.105326219944,4.471683097909E-17,-0.9944377242403
462,GRAV,13568374.28637,0.1148138805327,4.474462058764E-17,-0.9933870206707
463,GRAV,13568374.28637,0.1148138805327,4.474462058764E-17,-0.9933870206707
464,GRAV,12977889.1043,0.09094886642636,4.466945606446E-17,-0.9958555636716
465,GRAV,12976115.03122,0.2422827609749,4.471151194026E-17,-0.9702056811493
466,GRAV,14152889.12975,0.1739378912384,4.482148197659E-17,-0.9847566247513
467,GRAV,13559927.73448,0.2499525821234,4.468405585547E-17,-0.9682580785564
468,GRAV,13910479.04202,0.2100468539313,4.479018933809E-17,-0.9776913209974
469,GRAV,13910479.04202,0.2100468539313,4.479018933809E-17,-0.9776913209974
470,GRAV,14516363.78121,0.2061981405918,4.479555637672E-17,-0.9785102589225
471,GRAV,13911611.66036,0.1239651829163,4.476649193015E-17,-0.9922865681972
472,GRAV,14660975.47738,0.169027570227,4.482036086367E-17,-0.9856113232422
473,GRAV,13911611.66036,0.1239651829163,4.476649193015E-17,-0.9922865681972
474,GRAV,14149312.38232,0.1917448057885,4.481347753663E-17,-0.9814448173245
475,GRAV,12535596.51026,0.2119004287928,4.478931877735E-17,-0.9772912607188
476,GRAV,14118748.66291,0.2359868639697,4.472919246734E-17,-0.9717562451735
477,GRAV,12729528.03929,0.1040657216707,4.471494983286E-17,-0.9945704226314
478,GRAV,12416037.77642,0.1439788293114,4.480497786351E-17,-0.989580768159
479,GRAV,13268393.05464,0.08474459330874,4.464496034417E-17,-0.9964027066929
480,GRAV,12731026.23397,0.2289690216347,4.475112866887E-17,-0.973433709675
481,GRAV,12424639.05698,0.1903248233428,4.481764885211E-17,-0.9817211730525
482,GRAV,14191257.30021,0.1444488411369,4.480252883146E-17,-0.9895122699058
483,GRAV,14032849.49912,0.1214133930129,4.476042894625E-17,-0.9926020290112
484,GRAV,14032849.49912,0.1214133930129,4.476042894625E-17,-0.9926020290112
485,GRAV,14054578.88044,0.1392660740346,4.479530964081E-17,-0.9902549977773
486,GRAV,14153564.96205,0.1425202815399,4.479996472309E-17,-0.9897918818367
487,GRAV,14024751.61758,0.1949563120022,4.481065354415E-17,-0.9808119271351
488,GRAV,14392401.86634,0.1017218015677,4.470469985004E-17,-0.9948128844591
489,GRAV,14025358.53369,0.1392046997955,4.47952595618E-17,-0.9902636273008
490,GRAV,14149312.38232,0.1917448057885,4.481347753663E-17,-0.9814448173245
491,GRAV,12340541.25,0.1998510033963,4.480809710043E-17,-0.9798262991171
492,GRAV,13154948.50193,0.2554214752068,4.466414699742E-17,-0.966829804052
493,GRAV,13334661.01381,0.2576764095924,4.465491552513E-17,-0.9662312704211
494,GRAV,12727543.97015,0.09302979623924,4.467757662807E-17,-0.9956633251314
495,GRAV,13973712.35259,0.2498349629248,4.468381701886E-17,-0.9682884339392
496,GRAV,13802331.73006,0.2541754577404,4.46678816658E-17,-0.9671581239293
497,GRAV,14225548.21982,0.1540688557197,4.481302004258E-17,-0.9880601134026
498,GRAV,12590636.68719,0.2308484278664,4.474638310417E-17,-0.9729897241758
499,GRAV,14702866.66212,0.1947982089391,4.480981046398E-17,-0.9808433400876
500,GRAV,12728251.1572,0.2400335080655,4.471918490893E-17,-0.9707646032926
501,GRAV,13157382.5859,0.07771800495702,4.461592129507E-17,-0.9969753816948
502,GRAV,14746157.84098,0.1829847443366,4.481838568421E-17,-0.9831157527677
503,GRAV,14483416.43992,0.2227551671392,4.476360224461E-17,-0.9748744203808
504,GRAV,14362635.77732,0.2319791067078,4.474029783503E-17,-0.972720768798
505,GRAV,14746614.57969,0.1531351588684,4.481142452064E-17,-0.9882052535371
506,GRAV,14124418.1043,0.1075439729116,4.472323313896E-17,-0.9942003288525
507,GRAV,14619906.26619,0.148944481521,4.480735148586E-17,-0.9888455599458
508,GRAV,14238249.43052,0.169083573273,4.48209889244E-17,-0.985601717353
509,GRAV,14038219.93989,0.09966021220248,4.469844989078E-17,-0.9950215284625
510,GRAV,12530466.16474,0.1217895433315,4.476391865365E-17,-0.9925559466021
511,GRAV,12369711.70414,0.1672062897485,4.482379203087E-17,-0.9859219323397
512,GRAV,13065193.0877,0.1325889789055,4.47855840007E-17,-0.9911711066576
513,GRAV,13361195.96558,0.212975721328,4.478584142879E-17,-0.9770574917193
514,GRAV,13361195.96558,0.212975721328,4.478584142879E-17,-0.9770574917193
515,GRAV,13065193.0877,0.1325889789055,4.47855840007E-17,-0.9911711066576
516,GRAV,14154704.08901,0.162605099611,4.481893838567E-17,-0.9866912290988
517,GRAV,13969054.02815,0.1995163712541,4.480562976907E-17,-0.9798944930969
518,GRAV,12893853.70821,0.1545557417254,4.481565519047E-17,-0.9879840700637
519,GRAV,12893853.70821,0.1545557417254,4.481565519047E-17,-0.9879840700637
520,GRAV,13363755.10088,0.1211505980459,4.476089535536E-17,-0.9926341383375
521,GRAV,13066048.32672,0.2012112214785,4.480499058048E-17,-0.9795478775186
522,GRAV,13066048.32672,0.2012112214785,4.480499058048E-17,-0.9795478775186
523,GRAV,13363755.10088,0.1211505980459,4.476089535536E-17,-0.9926341383375
524,GRAV,14141224.85541,0.1581940235869,4.481637309669E-17,-0.9874080468081
525,GRAV,14513201.81996,0.1111194592664,4.473303533883E-17,-0.9938070566123
526,GRAV,13969054.02815,0.1995163712541,4.480562976907E-17,-0.9798944930969
527,GRAV,13969660.09529,0.1345973129139,4.478770501853E-17,-0.9909003801374
528,GRAV,13969660.09529,0.1345973129139,4.478770501853E-17,-0.9909003801374
529,GRAV,14090507.29597,0.131968215145,4.478272599364E-17,-0.9912539483863
530,GRAV,12898146.39247,0.1797573447289,4.482257895699E-17,-0.9837109824618
531,GRAV,12898146.39247,0.1797573447289,4.482257895699E-17,-0.9837109824618
532,GRAV,12288750.23745,0.185919863193,4.482098201621E-17,-0.9825649110722
533,GRAV,12589894.24864,0.1024326626157,4.471002850462E-17,-0.9947399407028
534,GRAV,13691273.47251,0.1225353685734,4.476358980763E-17,-0.9924641471855
535,GRAV,13691273.47251,0.1225353685734,4.476358980763E-17,-0.9924641471855
536,GRAV,13337088.27879,0.07538927734233,4.460543552482E-17,-0.9971541790826
537,GRAV,12336233.81191,0.1343002098346,4.479006952195E-17,-0.990940691282
538,GRAV,12284452.84393,0.1483606133894,4.481066075934E-17,-0.9889333285893
539,GRAV,14702985.78707,0.141241949642,4.479732882178E-17,-0.9899751065867
540,GRAV,14138332.43039,0.1554768411239,4.481434067536E-17,-0.9878395375131
541,GRAV,13690745.62449,0.2114425267483,4.478809041436E-17,-0.9773904326738
542,GRAV,13690745.62449,0.2114425267483,4.478809041436E-17,-0.9773904326738
543,GRAV,14224076.99939,0.1361718734907,4.479003432619E-17,-0.9906852279458
544,GRAV,14533277.80722,0.1649619780321,4.481939261992E-17,-0.9862999269004
545,GRAV,14281630.09287,0.1453338140324,4.480353904187E-17,-0.9893826774807
546,GRAV,14619906.26619,0.148944481521,4.480735148586E-17,-0.9888455599458
547,GRAV,14461584.65784,0.1375615020988,4.479198908814E-17,-0.9904932272057
548,GRAV,14461584.65784,0.1375615020988,4.479198908814E-17,-0.9904932272057
549,GRAV,14096176.69754,0.1328122522067,4.478428978044E-17,-0.9911412137853
550,GRAV,14218366.88818,0.1353371559792,4.478861513402E-17,-0.9907996034575
551,GRAV,14124418.1043,0.1075439729116,4.472323313896E-17,-0.9942003288525
552,GRAV,14134673.58321,0.1788532110844,4.482076879156E-17,-0.9838757690302
553,GRAV,14038219.93989,0.09966021220248,4.469844989078E-17,-0.9950215284625
554,GRAV,14161953.1084,0.09408988406254,4.467897691822E-17,-0.9955637065086
555,GRAV,14142305.30346,0.158506988875,4.48165843278E-17,-0.9873578553279
556,GRAV,14139400.54277,0.1557902139806,4.481459120266E-17,-0.9877901645734
557,GRAV,14321914.90883,0.1649298144689,4.481969013514E-17,-0.9863053058254
558,GRAV,14321914.90883,0.1649298144689,4.481969013514E-17,-0.9863053058254
559,GRAV,14545972.47489,0.1298284683917,4.477791729095E-17,-0.9915364687166
560,GRAV,13863022.20033,0.08519447714618,4.464577125575E-17,-0.9963643415256
561,GRAV,14368360.07123,0.1114336409796,4.47341318347E-17,-0.9937718770714
562,GRAV,14135741.36993,0.1785409926665,4.482084748589E-17,-0.9839324742774
563,GRAV,14533277.80722,0.1649619780321,4.481939261992E-17,-0.9862999269004
564,GRAV,13863022.20033,0.08519447714618,4.464577125575E-17,-0.9963643415256
565,GRAV,14368360.07123,0.1114336409796,4.47341318347E-17,-0.9937718770714
566,GRAV,14405063.29313,0.1284737673336,4.477539977992E-17,-0.9917129076034
567,GRAV,14405063.29313,0.1284737673336,4.477539977992E-17,-0.9917129076034
568,GRAV,13576550.42452,0.07965986403994,4.462350450539E-17,-0.9968221035175
569,GRAV,13623479.70021,0.08984729749727,4.46642102027E-17,-0.9959555527896
570,GRAV,13508381.59558,0.08886758776707,4.466068012773E-17,-0.9960434487734
571,GRAV,13556595.05523,0.09906499044847,4.469722736431E-17,-0.9950809653829
572,GRAV,13623479.70021,0.08984729749727,4.46642102027E-17,-0.9959555527896
573,GRAV,13671823.25146,0.09995444507019,4.470001197122E-17,-0.994992014496
574,GRAV,13438702.8713,0.225777164631,4.47579934505E-17,-0.9741789732545
575,GRAV,13646061.06478,0.2181247441177,4.477515265287E-17,-0.9759208963864
576,GRAV,13556037.7581,0.2248045892531,4.476017641187E-17,-0.9744038673213
577,GRAV,13214578.50781,0.2225303437251,4.476614548154E-17,-0.9749257644157
578,GRAV,13108029.22757,0.2182207854666,4.477586744969E-17,-0.9758994255508
579,GRAV,13062692.59584,0.2090439702725,4.47933163151E-17,-0.977906242179
580,GRAV,13044041.67334,0.1177799269611,4.47532059395E-17,-0.9930397216653
581,GRAV,13153786.40063,0.1138469622685,4.474273905321E-17,-0.9934982985301
582,GRAV,13280049.34184,0.1164745837373,4.474945850302E-17,-0.9931936726254
583,GRAV,12873520.32475,0.1419046658799,4.480123459555E-17,-0.9898803290305
584,GRAV,12996856.84229,0.1389323998447,4.479655529929E-17,-0.9903018672472
585,GRAV,12873520.32475,0.1419046658799,4.480123459555E-17,-0.9898803290305
586,GRAV,12996856.84229,0.1389323998447,4.479655529929E-17,-0.9903018672472
587,GRAV,12878856.9031,0.1627385572943,4.482113688833E-17,-0.9866692262201
588,GRAV,12797294.20537,0.1700131243554,4.482355425823E-17,-0.985441798153
589,GRAV,12797294.20537,0.1700131243554,4.482355425823E-17,-0.985441798153
590,GRAV,12878856.9031,0.1627385572943,4.482113688833E-17,-0.9866692262201
591,GRAV,12878712.26839,0.1920407673303,4.481534604291E-17,-0.981386949008
592,GRAV,12997735.77367,0.1949343359821,4.481239382856E-17,-0.98081629506
593,GRAV,12997735.77367,0.1949343359821,4.481239382856E-17,-0.98081629506
594,GRAV,12878712.26839,0.1920407673303,4.481534604291E-17,-0.981386949008
595,GRAV,14234667.45587,0.1712991210229,4.482129527438E-17,-0.9852190675869
596,GRAV,14154554.45324,0.1670643493639,4.482064422429E-17,-0.9859459940441
597,GRAV,14193715.47783,0.1471626416524,4.480592684756E-17,-0.9891123075273
598,GRAV,14290174.04451,0.1471930415172,4.480581803541E-17,-0.9891077840806
599,GRAV,14238762.5654,0.158460662286,4.481640703181E-17,-0.9873652913223
600,GRAV,14154704.08901,0.162605099611,4.481893838567E-17,-0.9866912290988
601,GRAV,14153605.03801,0.1622929346348,4.481878642731E-17,-0.9867426226568
602,GRAV,14237682.32285,0.1581498114727,4.48161965714E-17,-0.9874151290775
603,GRAV,10344779.90083,0.1839037937685,4.482674520106E-17,-0.9829442479803
604,GRAV,5693966.121513,0.1823703064383,4.485153265747E-17,-0.9832299178369
605,GRAV,5693966.121513,0.1823703064383,4.485153265747E-17,-0.9832299178369
606,GRAV,5699412.083315,0.2126655885994,4.481709723459E-17,-0.9771250418578
607,GRAV,8022634.266898,0.1995193989778,4.482180624231E-17,-0.979893876617
608,GRAV,10346654.10475,0.1419104241091,4.48070277513E-17,-0.9898795035403
609,GRAV,8018282.652377,0.1671409585872,4.483715243621E-17,-0.9859330098757
610,GRAV,10343655.21675,0.1587404565065,4.482465878424E-17,-0.9873203469331
611,GRAV,8022634.268551,0.1345811979197,4.480385773881E-17,-0.9909025689575
612,GRAV,5696008.968826,0.1365732800419,4.482280694154E-17,-0.9906299708663
613,GRAV,10343655.21675,0.1587404565065,4.482465878424E-17,-0.9873203469331
614,GRAV,8018282.652377,0.1671409585872,4.483715243621E-17,-0.9859330098757
615,GRAV,2113639.238943,0.2690081917661,4.472772295676E-17,-0.9631378887588
616,GRAV,1994156.537017,0.4245808524095,4.33950260296E-17,-0.9053900263241
617,GRAV,2115068.964607,-0.06256102955967,4.369587816422E-17,-0.9980411402244
618,GRAV,1992425.729317,-0.1708822644802,4.230200628093E-17,-0.985291455198
619,GRAV,4812920.395657,0.04602261692719,4.449696314017E-17,-0.9989403979874
620,GRAV,2007046.812327,0.04970354690854,4.460630700668E-17,-0.9987640148828
621,GRAV,2135095.74002,0.5155957015513,4.194833854175E-17,-0.8568319978513
622,GRAV,1738023.023573,-0.1821272256812,4.214821389176E-17,-0.9832749735784
623,GRAV,2344266.172603,-0.1819607886395,4.21054915676E-17,-0.9833057873305
624,GRAV,3825069.248954,-0.1236688902731,4.290516555617E-17,-0.9923235387607
625,GRAV,2686167.246773,-0.136335884687,4.276743236021E-17,-0.9906626704114
626,GRAV,4606205.172656,0.3370501299248,4.422209244727E-17,-0.9414867019335
627,GRAV,3758631.361707,-0.2158977397081,4.14893117708E-17,-0.9764159799947
628,GRAV,2345436.524489,0.459154304851,4.288871493242E-17,-0.888356529968
629,GRAV,1754765.126875,0.07048593140509,4.473413878342E-17,-0.9975127735894
630,GRAV,3071577.87118,0.065911906286,4.463795691908E-17,-0.9978254459622
631,GRAV,3508822.103789,0.04588647184393,4.451973139696E-17,-0.9989466610894
632,GRAV,2834449.68239,0.03390211674584,4.446856508995E-17,-0.9994251580184
633,GRAV,3713298.92099,0.003555240791135,4.423280416592E-17,-0.9999936801115
634,GRAV,3797119.937522,0.1373495406084,4.485086459337E-17,-0.990522641687
635,GRAV,3482443.463464,-0.0267507679411,4.398766989243E-17,-0.9996421341733
636,GRAV,4042274.978773,0.1553314386338,4.486809126216E-17,-0.9878624115594
637,GRAV,3041409.301445,-0.01700262796266,4.408539045803E-17,-0.9998554448731
638,GRAV,3986837.862332,0.09374017632053,4.473267404448E-17,-0.9955966951248
639,GRAV,4980621.301817,0.08197769740847,4.46719544172E-17,-0.9966341641383
640,GRAV,4116529.784652,-0.2276671354425,4.127285293102E-17,-0.9737390181355
641,GRAV,2815619.818412,-0.2564892129895,4.076618995745E-17,-0.9665470933276
642,GRAV,2491546.582388,-0.3140698433556,3.957706293375E-17,-0.9493998807113
643,GRAV,4682878.018972,0.407543644628,4.351905256124E-17,-0.9131857301356
644,GRAV,4783126.858289,0.1435032561196,4.484352989998E-17,-0.9896498448861
645,GRAV,4177279.319607,-0.1433374577258,4.262897349121E-17,-0.9896738721481
646,GRAV,1604819.059052,-0.05263090164428,4.384401858298E-17,-0.9986140336447
647,GRAV,4923629.406151,0.01674699262743,4.430902921107E-17,-0.9998597592852
648,GRAV,3870508.535867,-0.07849694512864,4.345716546751E-17,-0.9969143541977
649,GRAV,2288500.096088,-0.1086244043969,4.315301168927E-17,-0.9940828631303
650,GRAV,4578075.459458,0.3002450489137,4.448306738172E-17,-0.9538621025089
651,GRAV,3649610.928005,-0.1123908309691,4.305562496787E-17,-0.9936640786071
652,GRAV,2637639.717517,-0.07136813458943,4.35729213152E-17,-0.9974500435436
653,GRAV,2858882.441852,-0.1175456592114,4.301242767815E-17,-0.9930674790771
654,GRAV,3579918.278359,-0.2091167152028,4.161102763226E-17,-0.9778906888926
655,GRAV,2201939.162419,0.1887583226057,4.493278448019E-17,-0.9820235718388
656,GRAV,1859921.442629,-0.05827772106411,4.376031930782E-17,-0.9983004093095
657,GRAV,4796733.045478,0.2444659747601,4.474434679638E-17,-0.9696578712023
658,GRAV,3306856.860769,-0.2703203836142,4.047618145317E-17,-0.9627704244537
659,GRAV,4669985.320355,0.02278056290287,4.435392948867E-17,-0.999740489304
660,GRAV,4251208.601187,0.3510010113232,4.411028770785E-17,-0.9363750797891
661,GRAV,3594117.769519,0.6036295753977,3.994488824496E-17,-0.7972649093653
662,GRAV,4784042.317683,0.3308277213236,4.426863625964E-17,-0.9436911670689
663,GRAV,2175634.99629,-0.2099324055264,4.165196895683E-17,-0.9777159020441
664,GRAV,2980843.72293,-0.2321504945759,4.121956802235E-17,-0.9726798794404
665,GRAV,4938148.990732,0.1623103266884,4.485900172935E-17,-0.9867397619688
666,GRAV,4691686.112855,0.1759370650652,4.486476492296E-17,-0.9844014166671
667,GRAV,4218926.887366,-0.1018130051253,4.317667377048E-17,-0.9948035544706
668,GRAV,3738067.178911,-0.2623545649467,4.062445125592E-17,-0.9649715447886
669,GRAV,3945761.311913,0.2610050646511,4.469570924399E-17,-0.965337431278
670,GRAV,2695023.251956,0.1848092190627,4.490994569226E-17,-0.9827744159009
671,GRAV,3694206.97126,0.2499870702279,4.474398731247E-17,-0.9682491749126
672,GRAV,2943405.501337,0.2053488216381,4.48794426444E-17,-0.9786888481289
673,GRAV,1859921.442629,-0.05827772106411,4.376031930782E-17,-0.9983004093095
674,GRAV,3477446.426896,-0.3237976705697,3.932247144844E-17,-0.9461263491382
675,GRAV,4993689.407088,0.2765064535423,4.460887708212E-17,-0.9610120608762
676,GRAV,5038059.624766,0.2280062556226,4.47902056055E-17,-0.9736596671307
677,GRAV,4334166.011908,0.4264104412662,4.328870136912E-17,-0.9045297870049
678,GRAV,4220713.611547,0.3113693743918,4.441733316303E-17,-0.9502889627323
679,GRAV,5129678.495217,0.1020372258806,4.474397953168E-17,-0.9947805811005
680,GRAV,5086107.608064,0.05293884448182,4.453208680535E-17,-0.9985977562287
681,GRAV,4097762.070785,-0.2700053097274,4.046472807045E-17,-0.9628588332248
682,GRAV,4857909.153674,0.3990706455481,4.361576270342E-17,-0.916920181838
683,GRAV,2333582.679332,-0.3482591034003,3.879061087458E-17,-0.9373983128312
684,GRAV,2895096.586958,-0.3109235377519,3.963007695412E-17,-0.9504349286889
685,GRAV,4731090.340338,0.4410092783599,4.308596788823E-17,-0.8975025439521
686,GRAV,4353926.438889,-0.1519593570293,4.250234402754E-17,-0.988386743037
687,GRAV,3229776.655576,-0.341218685099,3.892304690747E-17,-0.939983940788
688,GRAV,4649148.435937,-0.1110590047244,4.30545985357E-17,-0.993813814288
689,GRAV,3547590.769438,0.5461276882428,4.128420994985E-17,-0.8377019446883
690,GRAV,3345345.041226,0.6167244481411,3.960774763681E-17,-0.787179112442
691,GRAV,4386212.977803,0.4619272282399,4.278625113692E-17,-0.8869178292325
692,GRAV,4295675.777939,-0.232805700443,4.11762636491E-17,-0.9725232675064
693,GRAV,2581021.824431,-0.3721383513306,3.818600180983E-17,-0.9281772715753
694,GRAV,3788530.954563,0.3108512231562,4.442904016383E-17,-0.9504585825076
695,GRAV,2776375.549538,0.2709398036246,4.468436987777E-17,-0.9625962927478
696,GRAV,3281756.116654,0.2940346660096,4.454648296892E-17,-0.9557947557842
697,GRAV,3264523.592984,0.4898110104117,4.236063156231E-17,-0.8718286380244
698,GRAV,3043525.499581,0.5666843036067,4.085044832884E-17,-0.8239350096008
699,GRAV,3010167.866526,0.4958659971884,4.2264164757E-17,-0.8683990516072
700,GRAV,4037970.783021,0.5576926391804,4.102573584745E-17,-0.83004754093
701,GRAV,4238677.205398,0.5256398555422,4.168511866117E-17,-0.8507072012541
702,GRAV,4669985.320355,0.02278056290287,4.435392948867E-17,-0.999740489304
703,GRAV,4160598.310551,0.4369472222967,4.315086594216E-17,-0.8994871455041
704,GRAV,4074108.228041,0.3588531943087,4.404277604447E-17,-0.9333940137661
705,GRAV,4004759.476757,0.5043669556785,4.20883134633E-17,-0.8634894174335
706,GRAV,2447832.312206,0.3263388837462,4.436355931264E-17,-0.9452528407549
707,GRAV,3387583.926099,0.3598775982855,4.404848420123E-17,-0.9329995253226
708,GRAV,3132817.973641,0.3551932694224,4.40985999569E-17,-0.9347928868776
709,GRAV,2359490.410723,0.6078168377083,3.988111187006E-17,-0.794077258079
710,GRAV,1778922.992885,0.4894026300114,4.244558958621E-17,-0.8720579486123
711,GRAV,2604469.335026,0.6305650469295,3.925378952326E-17,-0.7761364065618
712,GRAV,2552675.251425,0.5524435943351,4.118351542648E-17,-0.8335502834731
713,GRAV,4642335.923482,-0.05187294593662,4.372731974314E-17,-0.9986536924679
714,GRAV,4897412.221085,-0.05405723214792,4.370184440043E-17,-0.9985378388687
715,GRAV,4387284.419946,-0.04943439053359,4.375551009159E-17,-0.998777373108
716,GRAV,4642335.923482,-0.05187294593662,4.372731974314E-17,-0.9986536924679
717,GRAV,4604766.36045,0.1084957553053,4.477068537804E-17,-0.9940969123183
718,GRAV,4455158.065852,0.0862998127729,4.469659688607E-17,-0.9962692117673
719,GRAV,4507933.84245,0.1416712917507,4.484485693199E-17,-0.9899137563918
720,GRAV,4355000.308301,0.1202127385075,4.480585363487E-17,-0.9927481541159
721,GRAV,4455158.065852,0.0862998127729,4.469659688607E-17,-0.9962692117673
722,GRAV,4307919.015609,0.06252694367191,4.459282117586E-17,-0.9980432762737
723,GRAV,1994156.537017,0.4245808524095,4.33950260296E-17,-0.9053900263241
724,GRAV,2113639.238943,0.2690081917661,4.472772295676E-17,-0.9631378887588
725,GRAV,1647100.14314,0.3742602356287,4.400472641138E-17,-0.9273237169549
726,GRAV,1789902.069892,0.1890325067255,4.496446370103E-17,-0.981970830219

***********************************************************
** MbDAssembly gravity
*DLOAD
Eall,GRAV,9810,0,0,-1

***********************************************************
** Outputs --> frd file
*NODE FILE
U
*EL FILE
S, E
*OUTPUT, FREQUENCY=1
***********************************************************
*END STEP

***********************************************************
** CalculiX Input file
**   written by    --> FreeCAD 26.3.0
**   written on    --> Sat Sep  5 11:49:58 2026
**   file name     --> RealisticPendulum.FCStd
**   analysis name --> FEMPart002
**
**
***********************************************************
**  About units:
**  See ccx manual, ccx does not know about any unit.
**  Golden rule: The user must make sure that the numbers they provide have consistent units.
**  The user is the FreeCAD calculix writer module ;-)
**
**  The unit system which is used at Guido Dhondt's company: mm, N, s, K
**  Since Length and Mass are connected by Force, if Length is mm the Mass is in t to get N
**  The following units are used to write to inp file:
**
**  Length: mm (this includes the mesh geometry)
**  Mass: t
**  TimeSpan: s
**  Temperature: K
**
**  This leads to:
**  Force: N
**  Pressure: N/mm^2 == MPa (Young's Modulus has unit Pressure)
**  Density: t/mm^3
**  Gravity: mm/s^2
**  Thermal conductivity: t*mm/K/s^3 == as W/m/K == kW/mm/K
**  Specific Heat: mm^2/s^2/K = J/kg/K == kJ/t/K
**
