** written by FreeCAD inp file writer for CalculiX,Abaqus meshes
** highest dimension mesh elements only.

** Nodes
*Node, NSET=Nall
1, -5e-15, 5, 212
2, -5e-15, -5, 212
3, -2e-15, 5, 200
4, -2e-15, -5, 200
5, -5, -3, 180
6, -5, -3, 48
7, -5, 3, 180
8, -5, 3, 48
9, 5, -3, 180
10, 5, -3, 48
11, 5, 3, 180
12, 5, 3, 48
13, -7e-15, 5, 76
14, -7e-15, -5, 76
15, 10, 5, 209.3205080757
16, 17.32050807569, 5, 202
17, 20, 5, 192
18, 17.32050807569, 5, 182
19, 10, 5, 174.6794919243
20, -1.130139009627e-13, 5, 172
21, -10, 5, 174.6794919243
22, -17.32050807569, 5, 182
23, -20, 5, 192
24, -17.32050807569, 5, 202
25, -10, 5, 209.3205080757
26, 5.17638090205, 5, 211.3185165258
27, 14.14213562373, 5, 206.1421356237
28, 19.31851652578, 5, 197.1763809021
29, 19.31851652578, 5, 186.8236190979
30, 14.14213562373, 5, 177.8578643763
31, 5.17638090205, 5, 172.6814834742
32, -5.176380902051, 5, 172.6814834742
33, -14.14213562373, 5, 177.8578643763
34, -19.31851652578, 5, 186.8236190979
35, -19.31851652578, 5, 197.1763809021
36, -14.14213562373, 5, 206.1421356237
37, -5.17638090205, 5, 211.3185165258
38, -4.9e-15, 0, 212
39, 10, -5, 209.3205080757
40, 17.32050807569, -5, 202
41, 20, -5, 192
42, 17.32050807569, -5, 182
43, 10, -5, 174.6794919243
44, -1.130139009627e-13, -5, 172
45, -10, -5, 174.6794919243
46, -17.32050807569, -5, 182
47, -20, -5, 192
48, -17.32050807569, -5, 202
49, -10, -5, 209.3205080757
50, 5.17638090205, -5, 211.3185165258
51, 14.14213562373, -5, 206.1421356237
52, 19.31851652578, -5, 197.1763809021
53, 19.31851652578, -5, 186.8236190979
54, 14.14213562373, -5, 177.8578643763
55, 5.17638090205, -5, 172.6814834742
56, -5.176380902051, -5, 172.6814834742
57, -14.14213562373, -5, 177.8578643763
58, -19.31851652578, -5, 186.8236190979
59, -19.31851652578, -5, 197.1763809021
60, -14.14213562373, -5, 206.1421356237
61, -5.17638090205, -5, 211.3185165258
62, 4, 5, 198.9282032303
63, 6.928203230276, 5, 196
64, 8, 5, 192
65, 6.928203230275, 5, 188
66, 4, 5, 185.0717967697
67, -4.520556038509e-14, 5, 184
68, -4, 5, 185.0717967697
69, -6.928203230276, 5, 188
70, -8, 5, 192
71, -6.928203230275, 5, 196
72, -4, 5, 198.9282032303
73, 2.07055236082, 5, 199.7274066103
74, 5.656854249492, 5, 197.6568542495
75, 7.727406610313, 5, 194.0705523608
76, 7.727406610313, 5, 189.9294476392
77, 5.656854249492, 5, 186.3431457505
78, 2.07055236082, 5, 184.2725933897
79, -2.07055236082, 5, 184.2725933897
80, -5.656854249492, 5, 186.3431457505
81, -7.727406610313, 5, 189.9294476392
82, -7.727406610313, 5, 194.0705523608
83, -5.656854249492, 5, 197.6568542495
84, -2.07055236082, 5, 199.7274066103
85, 4, -5, 198.9282032303
86, 6.928203230276, -5, 196
87, 8, -5, 192
88, 6.928203230275, -5, 188
89, 4, -5, 185.0717967697
90, -4.520556038509e-14, -5, 184
91, -4, -5, 185.0717967697
92, -6.928203230276, -5, 188
93, -8, -5, 192
94, -6.928203230275, -5, 196
95, -4, -5, 198.9282032303
96, 2.07055236082, -5, 199.7274066103
97, 5.656854249492, -5, 197.6568542495
98, 7.727406610313, -5, 194.0705523608
99, 7.727406610313, -5, 189.9294476392
100, 5.656854249492, -5, 186.3431457505
101, 2.07055236082, -5, 184.2725933897
102, -2.07055236082, -5, 184.2725933897
103, -5.656854249492, -5, 186.3431457505
104, -7.727406610313, -5, 189.9294476392
105, -7.727406610313, -5, 194.0705523608
106, -5.656854249492, -5, 197.6568542495
107, -2.07055236082, -5, 199.7274066103
108, -1.96e-15, -1.666666666667, 200
109, -1.96e-15, 1.666666666667, 200
110, -1.96e-15, -3.333333333333, 200
111, -1.96e-15, 8.881784197001e-16, 200
112, -1.96e-15, 3.333333333333, 200
113, -5, -3, 114
114, -5, 0, 180
115, -5, 3, 114
116, -5, 0, 48
117, 5, -3, 114
118, 5, 0, 180
119, 5, 3, 114
120, 5, 0, 48
121, 0, -3, 48
122, 0, -3, 180
123, 0, 3, 48
124, 0, 3, 180
125, 14, 5, 72.24871130596
126, 24.24871130596, 5, 62
127, 28, 5, 48
128, 24.24871130596, 5, 34
129, 14, 5, 23.75128869404
130, -1.706539592236e-13, 5, 20
131, -14, 5, 23.75128869404
132, -24.24871130596, 5, 34
133, -28, 5, 48
134, -24.24871130596, 5, 62
135, -14, 5, 72.24871130596
136, 7.246933262871, 5, 75.04592313609
137, 19.79898987322, 5, 67.79898987322
138, 27.04592313609, 5, 55.24693326287
139, 27.04592313609, 5, 40.75306673713
140, 19.79898987322, 5, 28.20101012678
141, 7.24693326287, 5, 20.95407686391
142, -7.246933262871, 5, 20.95407686391
143, -19.79898987322, 5, 28.20101012678
144, -27.04592313609, 5, 40.75306673713
145, -27.04592313609, 5, 55.24693326287
146, -19.79898987322, 5, 67.79898987322
147, -7.24693326287, 5, 75.04592313609
148, -6.86e-15, 0, 76
149, 14, -5, 72.24871130596
150, 24.24871130596, -5, 62
151, 28, -5, 48
152, 24.24871130596, -5, 34
153, 14, -5, 23.75128869404
154, -1.706539592236e-13, -5, 20
155, -14, -5, 23.75128869404
156, -24.24871130596, -5, 34
157, -28, -5, 48
158, -24.24871130596, -5, 62
159, -14, -5, 72.24871130596
160, 7.246933262871, -5, 75.04592313609
161, 19.79898987322, -5, 67.79898987322
162, 27.04592313609, -5, 55.24693326287
163, 27.04592313609, -5, 40.75306673713
164, 19.79898987322, -5, 28.20101012678
165, 7.24693326287, -5, 20.95407686391
166, -7.246933262871, -5, 20.95407686391
167, -19.79898987322, -5, 28.20101012678
168, -27.04592313609, -5, 40.75306673713
169, -27.04592313609, -5, 55.24693326287
170, -19.79898987322, -5, 67.79898987322
171, -7.24693326287, -5, 75.04592313609
172, 5.17638090205, 0, 211.3185165258
173, -5.17638090205, 0, 211.3185165258
174, 10, 0, 209.3205080757
175, -10, 0, 209.3205080757
176, 14.14213562373, 0, 206.1421356237
177, 19.31851652578, 0, 197.1763809021
178, 20, 0, 192
179, 17.32050807569, 0, 202
180, 19.31851652578, 0, 186.8236190979
181, 17.32050807569, 0, 182
182, 14.14213562373, 0, 177.8578643763
183, 10, 0, 174.6794919243
184, 5.17638090205, 0, 172.6814834742
185, -5.176380902051, 0, 172.6814834742
186, -1.130139009627e-13, 0, 172
187, -14.14213562373, 0, 177.8578643763
188, -17.32050807569, 0, 182
189, -10, 0, 174.6794919243
190, -19.31851652578, 0, 186.8236190979
191, -19.31851652578, 0, 197.1763809021
192, -17.32050807569, 0, 202
193, -20, 0, 192
194, -14.14213562373, 0, 206.1421356237
195, 3.416237101988, 5, 204.7495704353
196, 9.333333333333, 5, 182.6666666667
197, -3.472079033996, 5, 204.5411655079
198, -9.286798389993, 5, 201.0901942513
199, -12.74957043532, 5, 188.583762898
200, -12.38084668855, 5, 195.2789928582
201, -9.124928405887, 5, 182.7225085987
202, 3.26367410655, 5, 179.4029925601
203, 12.59700743988, 5, 188.7363258935
204, -3.31020904989, 5, 179.6461316421
205, 9.277491401325, 5, 201.1249284059
206, 12.35386835786, 5, 195.3102090499
207, 6.708118550994, 5, 207.0350392555
208, 1.708118550994, 5, 208.3747852177
209, -1.736039516998, 5, 208.2705827539
210, -6.736039516998, 5, 206.9308367918
211, -0.02792096600395, 5, 204.6453679716
212, 1.708118550994, 5, 202.3747852177
213, 3.708118550994, 5, 201.8388868328
214, -3.736039516998, 5, 201.7346843691
215, -1.736039516998, 5, 202.2705827539
216, 13.29899973851, 5, 201.5624642029
217, 9.638745700663, 5, 205.2227182408
218, 6.346864251657, 5, 202.9372494206
219, 16.17693417893, 5, 193.6551045249
220, 14.83718821678, 5, 198.6551045249
221, 10.81567987959, 5, 198.2175687279
222, 14.95875775779, 5, 185.3681629467
223, 16.29850371994, 5, 190.3681629467
224, 12.47543789887, 5, 192.0232674717
225, 9.666666666667, 5, 178.6730792955
226, 13.32692070451, 5, 182.3333333333
227, 10.96517038661, 5, 185.7014962801
228, 1.631837053275, 5, 175.7014962801
229, 6.631837053275, 5, 177.0412422422
230, 6.298503719941, 5, 181.0348296134
231, -6.655104524945, 5, 177.1628117832
232, -1.655104524945, 5, 175.8230658211
233, -0.02326747167005, 5, 179.5245621011
234, -13.22271824079, 5, 182.3612542993
235, -9.562464202944, 5, 178.7010002615
236, -6.217568727888, 5, 181.1843201204
237, -16.37478521766, 5, 190.291881449
238, -15.03503925551, 5, 185.291881449
239, -10.9372494206, 5, 185.6531357483
240, -14.85067738212, 5, 198.6394964291
241, -16.19042334427, 5, 193.6394964291
242, -12.56520856193, 5, 191.9313778781
243, -9.643399194997, 5, 205.2053511635
244, -13.30365323284, 5, 201.5450971257
245, -10.83382253927, 5, 198.1845935548
246, -6.379438711995, 5, 202.8156798796
247, 6.638745700663, 5, 200.0265658181
248, 8.1028473158, 5, 198.5624642029
249, 9.641035794069, 5, 195.6551045249
250, 10.17693417893, 5, 193.6551045249
251, 10.29850371994, 5, 190.3681629467
252, 9.762605335079, 5, 188.3681629467
253, 8.130768281804, 5, 185.3333333333
254, 6.666666666667, 5, 183.8692317182
255, 3.631837053275, 5, 182.2373946649
256, 1.631837053275, 5, 181.7014962801
257, -1.655104524945, 5, 181.8230658211
258, -3.655104524945, 5, 182.3589642059
259, -6.562464202943, 5, 183.8971526842
260, -8.026565818081, 5, 185.3612542993
261, -9.838886832798, 5, 188.291881449
262, -10.37478521766, 5, 190.291881449
263, -10.19042334427, 5, 193.6394964291
264, -9.654524959411, 5, 195.6394964291
265, -8.107500810134, 5, 198.5450971257
266, -6.643399194997, 5, 200.0091987408
267, 3.416237101988, -5, 204.7495704353
268, 9.333333333333, -5, 182.6666666667
269, -3.472079033996, -5, 204.5411655079
270, -9.286798389993, -5, 201.0901942513
271, -12.74957043532, -5, 188.583762898
272, -12.38084668855, -5, 195.2789928582
273, -9.124928405887, -5, 182.7225085987
274, 3.26367410655, -5, 179.4029925601
275, 12.59700743988, -5, 188.7363258935
276, -3.31020904989, -5, 179.6461316421
277, 9.277491401325, -5, 201.1249284059
278, 12.35386835786, -5, 195.3102090499
279, 1.708118550994, -5, 208.3747852177
280, 6.708118550994, -5, 207.0350392555
281, -6.736039516998, -5, 206.9308367918
282, -1.736039516998, -5, 208.2705827539
283, -0.02792096600395, -5, 204.6453679716
284, 3.708118550994, -5, 201.8388868328
285, 1.708118550994, -5, 202.3747852177
286, -1.736039516998, -5, 202.2705827539
287, -3.736039516998, -5, 201.7346843691
288, 9.638745700663, -5, 205.2227182408
289, 13.29899973851, -5, 201.5624642029
290, 6.346864251657, -5, 202.9372494206
291, 14.83718821678, -5, 198.6551045249
292, 16.17693417893, -5, 193.6551045249
293, 10.81567987959, -5, 198.2175687279
294, 16.29850371994, -5, 190.3681629467
295, 14.95875775779, -5, 185.3681629467
296, 12.47543789887, -5, 192.0232674717
297, 13.32692070451, -5, 182.3333333333
298, 9.666666666667, -5, 178.6730792955
299, 10.96517038661, -5, 185.7014962801
300, 6.631837053275, -5, 177.0412422422
301, 1.631837053275, -5, 175.7014962801
302, 6.298503719941, -5, 181.0348296134
303, -1.655104524945, -5, 175.8230658211
304, -6.655104524945, -5, 177.1628117832
305, -0.02326747167005, -5, 179.5245621011
306, -9.562464202944, -5, 178.7010002615
307, -13.22271824079, -5, 182.3612542993
308, -6.217568727888, -5, 181.1843201204
309, -15.03503925551, -5, 185.291881449
310, -16.37478521766, -5, 190.291881449
311, -10.9372494206, -5, 185.6531357483
312, -16.19042334427, -5, 193.6394964291
313, -14.85067738212, -5, 198.6394964291
314, -12.56520856193, -5, 191.9313778781
315, -13.30365323284, -5, 201.5450971257
316, -9.643399194997, -5, 205.2053511635
317, -10.83382253927, -5, 198.1845935548
318, -6.379438711995, -5, 202.8156798796
319, 8.1028473158, -5, 198.5624642029
320, 6.638745700663, -5, 200.0265658181
321, 10.17693417893, -5, 193.6551045249
322, 9.641035794069, -5, 195.6551045249
323, 9.762605335079, -5, 188.3681629467
324, 10.29850371994, -5, 190.3681629467
325, 6.666666666667, -5, 183.8692317182
326, 8.130768281804, -5, 185.3333333333
327, 1.631837053275, -5, 181.7014962801
328, 3.631837053275, -5, 182.2373946649
329, -3.655104524945, -5, 182.3589642059
330, -1.655104524945, -5, 181.8230658211
331, -8.026565818081, -5, 185.3612542993
332, -6.562464202943, -5, 183.8971526842
333, -10.37478521766, -5, 190.291881449
334, -9.838886832798, -5, 188.291881449
335, -9.654524959411, -5, 195.6394964291
336, -10.19042334427, -5, 193.6394964291
337, -6.643399194997, -5, 200.0091987408
338, -8.107500810134, -5, 198.5450971257
339, -7.751173309934, 0.0004090689846006, 193.9797253141
340, -5.900629000126, 0.008584387974766, 197.4020900958
341, 5.900629000126, 0.008584387974766, 197.4020900958
342, 7.751173309934, 0.0004090689846006, 193.9797253141
343, -7.727406610313, 0, 189.9294476392
344, -5.656854249492, 0, 186.3431457505
345, -2.07055236082, 3.333333333333, 199.7274066103
346, -3.330387815149, 0.3820363689807, 199.2738240975
347, 3.330387815149, 0.3820363689807, 199.2738240975
348, 2.07055236082, 3.333333333333, 199.7274066103
349, 1.816621978181, -2.083765626184, 199.7910130656
350, -1.816621978181, -2.083765626184, 199.7910130656
351, -2.07055236082, 0, 184.2725933897
352, 2.07055236082, 0, 184.2725933897
353, 5.656854249492, -8.881784197001e-16, 186.3431457505
354, 7.727406610313, 0, 189.9294476392
355, 1.04420953776, 4.166666666667, 199.931558891
356, 3.061467458921, 4.166666666667, 199.3910362601
357, -1.04420953776, 4.166666666667, 199.931558891
358, -3.061467458921, 4.166666666667, 199.3910362601
359, -1.04420953776, 2.5, 199.931558891
360, 1.04420953776, 2.5, 199.931558891
361, 0.914301775996, -3.541882813092, 199.9475815354
362, 2.940133162333, -3.541882813092, 199.440135549
363, -0.914301775996, -3.541882813092, 199.9475815354
364, -2.940133162333, -3.541882813092, 199.440135549
365, 0.914301775996, -1.875216146425, 199.9475815354
366, -0.914301775996, -1.875216146425, 199.9475815354
367, 5.008779190018, 2.504292193987, 198.237958883
368, 6.452611739297, 2.504292193987, 196.7290381413
369, 4.709433607583, 0.1953103784777, 198.4669339795
370, 3.669265570394, 2.69101818449, 199.1089021778
371, 2.709976562646, 1.857684851157, 199.5270197974
372, 7.408873150076, 2.500204534492, 195.018045501
373, 7.937549574002, 2.500204534492, 192.9976506203
374, 7.037120984672, 0.004496728479683, 195.8051186903
375, 7.93155889099, 2.5, 190.9557904622
376, 7.39103626009, 2.5, 188.9385325411
377, 7.999862273683, 0.0002045344923003, 191.9530574595
378, 6.34682672233, 2.5, 187.1299085679
379, 4.87009143207, 2.5, 185.6531732777
380, 6.928203230275, 0, 188
381, 3.061467458921, 2.5, 184.6089637399
382, 1.04420953776, 2.5, 184.068441109
383, 4, 0, 185.0717967697
384, -3.061467458921, 2.5, 184.6089637399
385, -1.04420953776, 2.5, 184.068441109
386, -4.165284670629e-14, 0, 184
387, -4.87009143207, 2.5, 185.6531732777
388, -6.34682672233, 2.5, 187.1299085679
389, -4, 0, 185.0717967697
390, -7.39103626009, 2.5, 188.9385325411
391, -7.93155889099, 2.5, 190.9557904622
392, -6.928203230276, 0, 188
393, -7.937549574002, 2.500204534492, 192.9976506203
394, -7.408873150076, 2.500204534492, 195.018045501
395, -7.999862273683, 0.0002045344923003, 191.9530574595
396, -6.452611739297, 2.504292193987, 196.7290381413
397, -5.008779190018, 2.504292193987, 198.237958883
398, -7.037120984672, 0.004496728479683, 195.8051186903
399, -4.709433607583, 0.1953103784777, 198.4669339795
400, -3.669265570394, 2.69101818449, 199.1089021778
401, -2.709976562646, 1.857684851157, 199.5270197974
402, 6.452611739297, -2.495707806013, 196.7290381413
403, 5.008779190018, -2.495707806013, 198.237958883
404, 3.669265570394, -2.30898181551, 199.1089021778
405, 2.586464490448, -0.8508646286017, 199.570350153
406, 7.937549574002, -2.499795465508, 192.9976506203
407, 7.408873150076, -2.499795465508, 195.018045501
408, 7.39103626009, -2.5, 188.9385325411
409, 7.93155889099, -2.5, 190.9557904622
410, 4.87009143207, -2.5, 185.6531732777
411, 6.34682672233, -2.5, 187.1299085679
412, 1.04420953776, -2.5, 184.068441109
413, 3.061467458921, -2.5, 184.6089637399
414, -1.04420953776, -2.5, 184.068441109
415, -3.061467458921, -2.5, 184.6089637399
416, -6.34682672233, -2.5, 187.1299085679
417, -4.87009143207, -2.5, 185.6531732777
418, -7.93155889099, -2.5, 190.9557904622
419, -7.39103626009, -2.5, 188.9385325411
420, -7.408873150076, -2.499795465508, 195.018045501
421, -7.937549574002, -2.499795465508, 192.9976506203
422, -5.008779190018, -2.495707806013, 198.237958883
423, -6.452611739297, -2.495707806013, 196.7290381413
424, -3.669265570394, -2.30898181551, 199.1089021778
425, -2.586464490448, -0.8508646286017, 199.570350153
426, 0.914301775996, -0.2085494797587, 199.9475815354
427, -0.914301775996, -0.2085494797587, 199.9475815354
428, -1.704319104564, 1.024351517824, 199.8163480213
429, 1.704319104564, 1.024351517824, 199.8163480213
430, -5, 0, 114
431, 5, 0, 114
432, 0, -3, 114
433, 0, 3, 114
434, 0, 0, 48
435, -2.5, 1.5, 48
436, -2.5, -1.5, 48
437, 2.5, -1.5, 48
438, 2.5, 1.5, 48
439, 0, 0, 180
440, -2.5, -1.5, 180
441, -2.5, 1.5, 180
442, 2.5, -1.5, 180
443, 2.5, 1.5, 180
444, 7.246933262871, 0, 75.04592313609
445, -7.246933262871, 0, 75.04592313609
446, 14, 0, 72.24871130596
447, -14, 0, 72.24871130596
448, 19.79898987322, 0, 67.79898987322
449, 24.24871130596, 0, 62
450, 27.04592313609, 0, 55.24693326287
451, 28, 0, 48
452, 27.04592313609, 0, 40.75306673713
453, 19.79898987322, 0, 28.20101012678
454, 24.24871130596, 0, 34
455, 7.24693326287, 0, 20.95407686391
456, -1.706539592236e-13, 0, 20
457, 14, 0, 23.75128869404
458, -7.246933262871, 0, 20.95407686391
459, -14, 0, 23.75128869404
460, -19.79898987322, 0, 28.20101012678
461, -24.24871130596, 0, 34
462, -27.04592313609, 0, 40.75306673713
463, -27.04592313609, 0, 55.24693326287
464, -24.24871130596, 0, 62
465, -28, 0, 48
466, -19.79898987322, 0, 67.79898987322
467, -7.174332940777e-15, 5, 48
468, -3.751288694036, 5, 62
469, -14, 5, 51.75128869404
470, 3.751288694036, 5, 34
471, 14, 5, 44.24871130596
472, 10.24871130596, 5, 58.24871130596
473, -10.24871130596, 5, 37.75128869404
474, 5.124355652982, 5, 67.12435565298
475, -14, 5, 62
476, 19.12435565298, 5, 53.12435565298
477, 14, 5, 34
478, 9.562177826491, 5, 69.68653347947
479, 2.562177826491, 5, 71.56217782649
480, -1.875644347018, 5, 69
481, -8.875644347018, 5, 67.12435565298
482, 0.6865334794732, 5, 64.56217782649
483, 17.24871130596, 5, 60.12435565298
484, 12.12435565298, 5, 65.24871130596
485, 7.686533479473, 5, 62.68653347947
486, 23.56217782649, 5, 50.56217782649
487, 21.68653347947, 5, 57.56217782649
488, 14.68653347947, 5, 55.68653347947
489, 19.12435565298, 5, 39.12435565298
490, 21, 5, 46.12435565298
491, 16.56217782649, 5, 48.68653347947
492, 14, 5, 28.87564434702
493, 19.12435565298, 5, 34
494, 14, 5, 39.12435565298
495, 1.875644347018, 5, 27
496, 8.875644347018, 5, 28.87564434702
497, 8.875644347018, 5, 34
498, -12.12435565298, 5, 30.75128869404
499, -5.124355652982, 5, 28.87564434702
500, -3.248711305964, 5, 35.87564434702
501, -17.24871130596, 5, 35.87564434702
502, -21, 5, 49.87564434702
503, -19.12435565298, 5, 42.87564434702
504, -12.12435565298, 5, 44.75128869404
505, -19.12435565298, 5, 56.87564434702
506, -14, 5, 67.12435565298
507, -19.12435565298, 5, 62
508, -14, 5, 56.87564434702
509, -8.875644347018, 5, 62
510, -7, 5, 49.87564434702
511, -8.875644347018, 5, 56.87564434702
512, -1.875644347018, 5, 55
513, 3.248711305964, 5, 60.12435565298
514, 5.124355652982, 5, 53.12435565298
515, -5.124355652982, 5, 42.87564434702
516, 7, 5, 46.12435565298
517, 8.875644347018, 5, 39.12435565298
518, 1.875644347018, 5, 41
519, 12.12435565298, 5, 51.24871130596
520, -7.174332940777e-15, -5, 48
521, -3.751288694036, -5, 62
522, -14, -5, 51.75128869404
523, 3.751288694036, -5, 34
524, 14, -5, 44.24871130596
525, 10.24871130596, -5, 58.24871130596
526, -10.24871130596, -5, 37.75128869404
527, 5.124355652982, -5, 67.12435565298
528, -14, -5, 62
529, 19.12435565298, -5, 53.12435565298
530, 14, -5, 34
531, 2.562177826491, -5, 71.56217782649
532, 9.562177826491, -5, 69.68653347947
533, -8.875644347018, -5, 67.12435565298
534, -1.875644347018, -5, 69
535, 0.6865334794732, -5, 64.56217782649
536, 12.12435565298, -5, 65.24871130596
537, 17.24871130596, -5, 60.12435565298
538, 7.686533479473, -5, 62.68653347947
539, 21.68653347947, -5, 57.56217782649
540, 23.56217782649, -5, 50.56217782649
541, 14.68653347947, -5, 55.68653347947
542, 21, -5, 46.12435565298
543, 19.12435565298, -5, 39.12435565298
544, 16.56217782649, -5, 48.68653347947
545, 19.12435565298, -5, 34
546, 14, -5, 28.87564434702
547, 14, -5, 39.12435565298
548, 8.875644347018, -5, 28.87564434702
549, 1.875644347018, -5, 27
550, 8.875644347018, -5, 34
551, -5.124355652982, -5, 28.87564434702
552, -12.12435565298, -5, 30.75128869404
553, -3.248711305964, -5, 35.87564434702
554, -17.24871130596, -5, 35.87564434702
555, -19.12435565298, -5, 42.87564434702
556, -21, -5, 49.87564434702
557, -12.12435565298, -5, 44.75128869404
558, -19.12435565298, -5, 56.87564434702
559, -19.12435565298, -5, 62
560, -14, -5, 67.12435565298
561, -14, -5, 56.87564434702
562, -8.875644347018, -5, 62
563, -1.875644347018, -5, 55
564, -8.875644347018, -5, 56.87564434702
565, -7, -5, 49.87564434702
566, 5.124355652982, -5, 53.12435565298
567, 3.248711305964, -5, 60.12435565298
568, -5.124355652982, -5, 42.87564434702
569, 1.875644347018, -5, 41
570, 8.875644347018, -5, 39.12435565298
571, 7, -5, 46.12435565298
572, 12.12435565298, -5, 51.24871130596
573, 15.28761091622, -7.216767801455e-17, 195.8350285147
574, 9.274950641241, 0, 202.7846252033
575, 1.879065298762, 1.7763568394e-15, 204.5912207106
576, 16.30405949595, -2.5, 198.9175142573
577, 17.64380545811, -2.5, 193.9175142573
578, 16.30405949595, 2.5, 198.9175142573
579, 17.64380545811, 2.5, 193.9175142573
580, 5.701942847077, 2.5, 183.4696300282
581, 7.495093791413, 2.5, 184.5049062086
582, 5.701942847077, -2.5, 183.4696300282
583, 7.495093791413, -2.5, 184.5049062086
584, 9.333333333333, 0, 182.6666666667
585, 0.5965608728647, 2.5, 181.8377929749
586, 2.667113233685, 2.5, 181.8377929749
587, 0.5965608728647, -2.5, 181.8377929749
588, 2.667113233685, -2.5, 181.8377929749
589, 3.26367410655, 0, 179.4029925601
590, -7.39089132769, -2.5, 184.5328271746
591, -9.124928405887, 0, 182.7225085987
592, -7.39089132769, 2.5, 184.5328271746
593, -5.597740383354, 2.5, 183.4975509942
594, -5.597740383354, -2.5, 183.4975509942
595, 10.1622070251, 2.5, 189.3328867663
596, 10.17409037491, 2.500204534492, 191.3580256038
597, 10.17409037491, -2.499795465508, 191.3580256038
598, 12.59700743988, 0, 188.7363258935
599, 10.1622070251, -2.5, 189.3328867663
600, -9.140737844336, 2.504292193987, 196.340541477
601, -10.06600999924, 2.500204534492, 194.6293590862
602, -10.06600999924, -2.499795465508, 194.6293590862
603, -12.38084668855, 0, 195.2789928582
604, -9.140737844336, -2.495707806013, 196.340541477
605, -6.308593102571, 2.69101818449, 200.1820091744
606, -3.401233424572, 2.69101818449, 201.9074948027
607, -3.472079033996, 0, 204.5411655079
608, -3.401233424572, -2.30898181551, 201.9074948027
609, -6.379438711995, 0, 202.8156798796
610, 6.298503719941, 0, 181.0348296134
611, -6.308593102571, -2.30898181551, 200.1820091744
612, -9.286798389993, 0, 201.0901942513
613, 12.47543789887, 0, 192.0232674717
614, 10.0525208339, -2.499795465508, 194.644967182
615, -6.217568727888, 0, 181.1843201204
616, -2.690380705355, 2.5, 181.9593625159
617, -2.690380705355, -2.5, 181.9593625159
618, -0.02326747167005, 0, 179.5245621011
619, -7.59371369506, 2.504292193987, 199.2461421735
620, -10.83382253927, 0, 198.1845935548
621, -7.59371369506, -2.495707806013, 199.2461421735
622, 10.0525208339, 2.500204534492, 194.644967182
623, 12.35386835786, 0, 195.3102090499
624, -3.31020904989, 0, 179.6461316421
625, 0.9395326493808, 0.8333333333333, 202.2956103553
626, 0.9395326493808, -0.8333333333333, 202.2956103553
627, 0.03122166029049, -1.041882813092, 202.1911168881
628, -2.771315697408, 4.166666666667, 202.1342860591
629, -1.736039516998, 3.333333333333, 202.2705827539
630, -0.7256612581935, 0.1910181844904, 201.932522404
631, -12.74957043532, 0, 188.583762898
632, -16.37478521766, 0, 190.291881449
633, -12.56520856193, 0, 191.9313778781
634, -1.736039516998, 0, 208.2705827539
635, -0.7965068676172, 2.5, 204.5661931092
636, -0.7965068676172, -2.5, 204.5661931092
637, 0.9395326493808, 2.5, 208.2956103553
638, 9.126930844688, 2.5, 187.539735822
639, 9.126930844688, -2.5, 187.539735822
640, -8.4261675081, -2.5, 186.3259781189
641, -8.4261675081, 2.5, 186.3259781189
642, -9.643399194997, 0, 205.2053511635
643, -14.85067738212, 0, 198.6394964291
644, -2.644350506088, -3.541882813092, 202.1660892867
645, -10.05412664943, 2.5, 192.6042202487
646, -10.05412664943, -2.5, 192.6042202487
647, 2.743394731404, 4.166666666667, 202.2384885228
648, 3.373312458568, 2.69101818449, 202.0116972664
649, 9.127248678994, 2.504292193987, 196.3561495728
650, 7.587789820683, 0.004292193987383, 200.0933576496
651, 10.81440949955, 2.5, 199.0474171266
652, 8.513061975587, 0.0002045344923003, 198.3821752587
653, 9.127248678994, -2.495707806013, 196.3561495728
654, 10.81440949955, -2.5, 199.0474171266
655, -15.03503925551, 0, 185.291881449
656, -6.736039516998, 0, 206.9308367918
657, -13.30365323284, 0, 201.5450971257
658, -16.19042334427, 0, 193.6394964291
659, 5.545786309711, -1.041882813092, 201.2878191345
660, 6.302669228195, 0.1910181844904, 201.0292246504
661, 6.63747532062, -2.5, 200.8564142168
662, 10.96517038661, 0, 185.7014962801
663, 13.32692070451, 0, 182.3333333333
664, 9.666666666667, 0, 178.6730792955
665, -10.9372494206, 0, 185.6531357483
666, -10.23848852282, -2.5, 189.2566052686
667, -10.23848852282, 2.5, 189.2566052686
668, 6.631837053275, 0, 177.0412422422
669, -13.22271824079, 0, 182.3612542993
670, 14.95875775779, 0, 185.3681629467
671, 1.631837053275, 0, 175.7014962801
672, -9.562464202944, 0, 178.7010002615
673, -6.655104524945, 0, 177.1628117832
674, -1.655104524945, 0, 175.8230658211
675, 13.82073963704, -2.5, 195.5726187823
676, 13.82073963704, 2.5, 195.5726187823
677, 12.28128077873, -3.608383900728e-17, 199.309826859
678, 7.589060200726, -2.495707806013, 199.2635092508
679, 0.9395326493808, -2.5, 208.2956103553
680, 7.589060200726, 2.504292193987, 199.2635092508
681, 16.29850371994, 0, 190.3681629467
682, 2.616429540084, -3.541882813092, 202.2702917505
683, 6.345593871614, -2.5, 203.7670978193
684, 9.276221021283, -2.5, 201.9547768046
685, 9.276221021283, 2.5, 201.9547768046
686, 6.303939608237, 2.69101818449, 200.1993762517
687, 13.29772935846, 2.5, 202.3923126017
688, 9.63747532062, -2.5, 206.0525666395
689, 13.29772935846, -2.5, 202.3923126017
690, 1.974808829791, 1.666666666667, 202.1593136604
691, 2.647651200375, 2.5, 204.6703955729
692, 2.604726556955, 0.1910181844904, 201.932522404
693, 5.939532649381, 2.5, 206.9558643931
694, 0.9395326493808, 2.5, 202.2956103553
695, 1.847843638471, -1.041882813092, 202.1911168881
696, 9.63747532062, 2.5, 206.0525666395
697, 5.939532649381, -2.5, 206.9558643931
698, 6.345593871614, 2.5, 203.7670978193
699, 5.577007970001, 8.881784197001e-16, 203.687922957
700, 2.647651200375, -2.5, 204.6703955729
701, 0.9395326493808, -2.5, 202.2956103553
702, 13.94230917805, -2.5, 192.2856772041
703, 13.94230917805, 2.5, 192.2856772041
704, -2.5, -1.5, 114
705, -2.5, 1.5, 114
706, 0, 0, 114
707, 2.5, 1.5, 114
708, 2.5, -1.5, 114
709, 8.975377643885, -0.8976663497507, 65.49317875684
710, 5.93537837674, -0.01296017741486, 25.92144332982
711, -6.011920087684, -0.5, 28.36320878172
712, -3.005960043842, -2.75, 24.18160439086
713, -1.130315696824, -2.75, 31.18160439086
714, -8.130315696824, -2.75, 33.05724873788
715, -10.00596004384, -2.75, 26.05724873788
716, 8.875644347018, 0, 28.87564434702
717, 3.751288694036, 0, 34
718, 4.843333535388, 2.493519911293, 29.96072166491
719, 4.843333535388, -2.506480088707, 29.96072166491
720, 9.96768918837, -2.506480088707, 24.83636601193
721, 9.96768918837, 2.493519911293, 24.83636601193
722, 5.124355652982, 0, 67.12435565298
723, 9.562177826491, 0, 69.68653347947
724, 11.48768882194, -2.948833174875, 68.8709450314
725, 7.049866648434, 2.051166825125, 66.30876720491
726, 7.049866648434, -2.948833174875, 66.30876720491
727, 1.875644347018, 0, 27
728, 2.96768918837, 2.493519911293, 22.96072166491
729, -12.12435565298, 0, 30.75128869404
730, -8.130315696824, 2.25, 33.05724873788
731, -10.00596004384, 2.25, 26.05724873788
732, 2.96768918837, -2.506480088707, 22.96072166491
733, 14, 0, 28.87564434702
734, 8.875644347018, 0, 34
735, 14, 0, 34
736, 19.12435565298, 0, 53.12435565298
737, 14.68653347947, 0, 55.68653347947
738, 16.56217782649, 0, 48.68653347947
739, 14, 0, 39.12435565298
740, -8.875644347018, 0, 62
741, -14, 0, 67.12435565298
742, -14, 0, 62
743, 23.56217782649, 0, 50.56217782649
744, -10.24871130596, 0, 37.75128869404
745, 7, 0, 46.12435565298
746, 1.875644347018, 0, 41
747, 5.124355652982, 0, 53.12435565298
748, 8.875644347018, 0, 39.12435565298
749, 12.12435565298, 0, 51.24871130596
750, 10.24871130596, 0, 58.24871130596
751, -1.875644347018, 0, 55
752, 14, 0, 44.24871130596
753, 3.248711305964, 0, 60.12435565298
754, -3.751288694036, 0, 62
755, 2.562177826491, 0, 71.56217782649
756, 21.68653347947, 0, 57.56217782649
757, 19.12435565298, 0, 34
758, -19.12435565298, 0, 62
759, 0.6865334794732, 0, 64.56217782649
760, -1.875644347018, 0, 69
761, 11.48768882194, 2.051166825125, 68.8709450314
762, -8.875644347018, 0, 67.12435565298
763, 21, 0, 46.12435565298
764, -3.248711305964, 0, 35.87564434702
765, 19.12435565298, 0, 39.12435565298
766, 9.612044474925, -2.948833174875, 61.8709450314
767, -14, 0, 56.87564434702
768, -21, 0, 49.87564434702
769, 17.24871130596, 0, 60.12435565298
770, -8.875644347018, 0, 56.87564434702
771, -7, 0, 49.87564434702
772, -5.124355652982, 0, 42.87564434702
773, -19.12435565298, 0, 42.87564434702
774, -14, 0, 51.75128869404
775, -19.12435565298, 0, 56.87564434702
776, -12.12435565298, 0, 44.75128869404
777, -17.24871130596, 0, 35.87564434702
778, 9.612044474925, 2.051166825125, 61.8709450314
779, 16.61204447492, -2.948833174875, 63.74658937842
780, 2.612044474925, 2.051166825125, 63.74658937842
781, 2.612044474925, -2.948833174875, 63.74658937842
782, -3.005960043842, 2.25, 24.18160439086


** Volume elements
*Element, TYPE=C3D10, ELSET=Evolumes
388, 41, 40, 16, 573, 52, 179, 177, 577, 576, 578
389, 41, 16, 17, 573, 177, 28, 178, 577, 578, 579
390, 353, 352, 196, 268, 383, 580, 581, 583, 582, 584
391, 352, 351, 202, 274, 386, 585, 586, 588, 587, 589
392, 201, 344, 273, 351, 592, 590, 591, 593, 389, 594
393, 203, 342, 354, 275, 596, 377, 595, 598, 597, 599
394, 200, 339, 340, 272, 601, 398, 600, 603, 602, 604
395, 346, 197, 198, 269, 606, 246, 605, 608, 607, 609
396, 274, 196, 352, 268, 610, 580, 588, 302, 584, 582
397, 198, 270, 346, 269, 612, 611, 605, 609, 318, 608
398, 196, 352, 202, 274, 580, 586, 230, 610, 588, 589
399, 342, 203, 278, 275, 596, 613, 614, 597, 598, 296
400, 204, 201, 273, 351, 236, 591, 615, 616, 593, 594
401, 276, 202, 351, 274, 618, 585, 617, 305, 589, 587
402, 272, 340, 198, 270, 604, 619, 620, 317, 621, 612
403, 278, 342, 206, 203, 614, 622, 623, 613, 596, 224
404, 276, 204, 273, 351, 624, 615, 308, 617, 616, 594
405, 351, 276, 204, 202, 617, 624, 616, 585, 618, 233
406, 200, 340, 198, 272, 600, 619, 245, 603, 604, 620
407, 198, 340, 346, 270, 619, 399, 605, 612, 621, 611
408, 108, 109, 350, 575, 111, 427, 366, 626, 625, 627
409, 345, 346, 109, 197, 401, 428, 359, 628, 606, 629
410, 109, 346, 350, 575, 428, 425, 427, 625, 630, 627
411, 199, 47, 271, 272, 632, 310, 631, 633, 312, 314
412, 269, 197, 1, 575, 607, 209, 634, 636, 635, 637
413, 353, 65, 354, 203, 378, 376, 380, 638, 252, 595
414, 354, 88, 353, 275, 408, 411, 380, 599, 323, 639
415, 344, 273, 92, 343, 590, 331, 416, 392, 640, 419
416, 343, 69, 344, 201, 390, 388, 392, 641, 260, 592
417, 269, 198, 270, 49, 609, 612, 318, 281, 642, 316
418, 198, 24, 200, 272, 244, 240, 245, 620, 643, 603
419, 269, 350, 346, 575, 644, 425, 608, 636, 627, 630
420, 346, 95, 350, 269, 424, 364, 425, 608, 287, 644
421, 342, 87, 354, 275, 406, 409, 377, 597, 324, 599
422, 64, 342, 354, 203, 373, 377, 375, 251, 596, 595
423, 343, 339, 70, 200, 395, 393, 391, 645, 601, 263
424, 272, 343, 339, 93, 646, 395, 602, 336, 418, 421
425, 195, 348, 62, 347, 647, 356, 213, 648, 371, 370
426, 206, 341, 342, 574, 649, 374, 622, 651, 650, 652
427, 342, 341, 278, 574, 374, 653, 614, 652, 650, 654
428, 72, 346, 345, 197, 400, 401, 358, 214, 606, 628
429, 278, 206, 342, 574, 623, 622, 614, 654, 651, 652
430, 272, 339, 340, 94, 602, 398, 604, 335, 420, 423
431, 199, 46, 271, 47, 655, 309, 631, 632, 58, 310
432, 340, 71, 339, 200, 396, 394, 398, 600, 264, 601
433, 341, 278, 86, 342, 653, 322, 402, 374, 614, 407
434, 206, 341, 63, 342, 649, 368, 249, 622, 374, 372
435, 25, 1, 269, 197, 37, 634, 656, 210, 209, 607
436, 48, 270, 198, 49, 315, 612, 657, 60, 316, 642
437, 24, 23, 200, 272, 35, 241, 240, 643, 658, 603
438, 347, 349, 85, 574, 405, 362, 404, 660, 659, 661
439, 196, 275, 268, 42, 662, 299, 584, 663, 295, 297
440, 43, 196, 274, 268, 664, 610, 300, 298, 584, 302
441, 46, 273, 199, 271, 307, 665, 655, 309, 311, 631
442, 197, 346, 109, 575, 606, 428, 629, 635, 630, 625
443, 65, 353, 196, 203, 378, 581, 253, 252, 638, 227
444, 268, 353, 88, 275, 583, 411, 326, 299, 639, 323
445, 271, 92, 273, 343, 334, 331, 311, 666, 419, 640
446, 69, 343, 199, 201, 390, 667, 261, 260, 641, 239
447, 196, 202, 43, 274, 230, 668, 664, 610, 589, 300
448, 46, 199, 273, 201, 655, 665, 307, 669, 239, 591
449, 275, 196, 203, 42, 662, 227, 598, 295, 663, 670
450, 198, 197, 25, 269, 246, 210, 243, 609, 607, 656
451, 199, 23, 272, 200, 237, 658, 633, 242, 241, 603
452, 202, 276, 44, 274, 618, 303, 671, 589, 305, 301
453, 273, 204, 21, 201, 615, 231, 672, 591, 236, 235
454, 48, 272, 198, 270, 313, 620, 657, 315, 317, 612
455, 273, 276, 21, 204, 308, 673, 672, 615, 624, 231
456, 204, 276, 44, 202, 624, 303, 674, 233, 618, 671
457, 343, 70, 199, 200, 391, 262, 667, 645, 263, 242
458, 343, 272, 271, 93, 646, 314, 666, 418, 336, 333
459, 95, 346, 340, 270, 424, 399, 422, 337, 611, 621
460, 346, 197, 269, 575, 606, 607, 608, 630, 635, 636
461, 206, 278, 573, 574, 623, 675, 676, 651, 654, 677
462, 87, 342, 278, 275, 406, 614, 321, 324, 597, 296
463, 342, 64, 206, 203, 373, 250, 622, 596, 251, 224
464, 18, 203, 196, 42, 222, 227, 226, 181, 670, 663
465, 199, 46, 22, 201, 655, 188, 238, 239, 669, 234
466, 3, 345, 109, 197, 357, 359, 112, 215, 628, 629
467, 199, 272, 23, 47, 633, 658, 237, 632, 312, 193
468, 272, 94, 340, 270, 335, 423, 604, 317, 338, 621
469, 71, 340, 198, 200, 396, 619, 265, 264, 600, 245
470, 198, 269, 25, 49, 609, 656, 243, 642, 281, 175
471, 277, 278, 86, 341, 293, 322, 319, 678, 653, 402
472, 2, 269, 1, 575, 282, 634, 38, 679, 636, 637
473, 206, 205, 63, 341, 221, 248, 249, 649, 680, 368
474, 346, 270, 95, 269, 611, 337, 424, 608, 318, 287
475, 21, 276, 273, 45, 673, 308, 672, 189, 304, 306
476, 198, 48, 24, 272, 657, 192, 244, 620, 313, 643
477, 42, 196, 43, 268, 663, 664, 54, 297, 584, 298
478, 43, 202, 44, 274, 668, 671, 55, 300, 589, 301
479, 17, 275, 203, 42, 681, 598, 223, 180, 295, 670
480, 46, 273, 21, 201, 307, 672, 187, 669, 591, 235
481, 44, 21, 276, 204, 185, 673, 303, 674, 231, 624
482, 85, 349, 267, 574, 362, 682, 284, 661, 659, 683
483, 277, 278, 341, 574, 293, 653, 678, 684, 654, 650
484, 206, 205, 341, 574, 221, 680, 649, 651, 685, 650
485, 341, 347, 85, 574, 369, 404, 403, 650, 660, 661
486, 195, 62, 205, 347, 213, 247, 218, 648, 370, 686
487, 72, 340, 346, 198, 397, 399, 400, 266, 619, 605
488, 39, 16, 40, 574, 176, 179, 51, 688, 687, 689
489, 205, 347, 62, 341, 686, 370, 247, 680, 369, 367
490, 72, 198, 346, 197, 266, 605, 400, 214, 246, 606
491, 21, 44, 276, 45, 185, 303, 673, 189, 56, 304
492, 22, 23, 46, 199, 34, 190, 188, 238, 237, 655
493, 46, 199, 23, 47, 655, 237, 190, 58, 632, 193
494, 196, 19, 18, 42, 225, 30, 226, 663, 182, 181
495, 272, 23, 48, 24, 658, 191, 313, 643, 35, 192
496, 272, 48, 23, 47, 313, 191, 658, 312, 59, 193
497, 195, 348, 347, 575, 647, 371, 648, 691, 690, 692
498, 21, 273, 46, 45, 672, 307, 187, 189, 306, 57
499, 2, 25, 269, 49, 173, 656, 282, 61, 175, 281
500, 21, 22, 46, 201, 33, 188, 187, 235, 234, 669
501, 203, 18, 17, 42, 222, 29, 223, 670, 181, 180
502, 25, 269, 1, 2, 656, 634, 37, 173, 282, 38
503, 48, 198, 25, 49, 657, 243, 194, 60, 642, 175
504, 198, 25, 24, 48, 243, 36, 244, 657, 194, 192
505, 15, 2, 1, 575, 172, 38, 26, 693, 679, 637
506, 277, 40, 278, 574, 289, 291, 293, 684, 689, 654
507, 15, 1, 195, 575, 26, 208, 207, 693, 637, 691
508, 3, 197, 109, 575, 215, 629, 112, 694, 635, 625
509, 278, 40, 573, 574, 291, 576, 675, 654, 689, 677
510, 196, 43, 202, 19, 664, 668, 230, 225, 183, 229
511, 20, 204, 44, 202, 232, 674, 186, 228, 233, 671
512, 353, 196, 66, 65, 581, 254, 379, 378, 253, 77
513, 343, 69, 199, 70, 390, 261, 667, 391, 81, 262
514, 343, 271, 92, 93, 666, 334, 419, 418, 333, 104
515, 353, 88, 89, 268, 411, 100, 410, 583, 326, 325
516, 108, 349, 109, 575, 365, 426, 111, 626, 695, 625
517, 94, 95, 340, 270, 106, 422, 423, 338, 337, 621
518, 89, 352, 274, 90, 413, 588, 328, 101, 412, 327
519, 67, 202, 66, 352, 256, 255, 78, 382, 586, 381
520, 64, 354, 65, 203, 375, 376, 76, 251, 595, 252
521, 91, 273, 92, 344, 332, 331, 103, 417, 590, 416
522, 344, 201, 69, 68, 592, 260, 388, 387, 259, 80
523, 354, 87, 88, 275, 409, 99, 408, 599, 324, 323
524, 347, 348, 109, 575, 371, 360, 429, 692, 690, 625
525, 16, 39, 15, 574, 176, 174, 27, 687, 688, 696
526, 340, 198, 72, 71, 619, 266, 397, 396, 265, 83
527, 277, 86, 85, 341, 319, 97, 320, 678, 402, 403
528, 62, 63, 205, 341, 74, 248, 247, 367, 368, 680
529, 85, 277, 341, 574, 320, 678, 403, 661, 684, 650
530, 351, 91, 276, 90, 415, 329, 617, 414, 102, 330
531, 68, 204, 67, 351, 258, 257, 79, 384, 616, 385
532, 21, 44, 20, 204, 185, 186, 32, 231, 674, 232
533, 42, 43, 196, 19, 54, 664, 663, 182, 183, 225
534, 86, 342, 278, 87, 407, 614, 322, 98, 406, 321
535, 206, 342, 63, 64, 622, 372, 249, 250, 373, 75
536, 17, 41, 275, 42, 178, 294, 681, 180, 53, 295
537, 202, 20, 19, 43, 228, 31, 229, 668, 184, 183
538, 43, 44, 202, 20, 55, 671, 668, 184, 186, 228
539, 39, 2, 15, 575, 50, 172, 174, 697, 679, 693
540, 3, 62, 195, 348, 73, 213, 212, 355, 356, 647
541, 339, 94, 272, 93, 420, 335, 602, 421, 105, 336
542, 71, 70, 339, 200, 82, 393, 394, 264, 263, 601
543, 205, 195, 347, 574, 218, 648, 686, 685, 698, 660
544, 1, 197, 195, 575, 209, 211, 208, 637, 635, 691
545, 195, 347, 574, 575, 648, 660, 698, 691, 692, 699
546, 267, 2, 39, 575, 279, 50, 280, 700, 679, 697
547, 15, 195, 574, 575, 207, 698, 696, 693, 691, 699
548, 267, 39, 574, 575, 280, 688, 683, 700, 697, 699
549, 205, 347, 341, 574, 686, 369, 680, 685, 660, 650
550, 85, 267, 277, 574, 284, 290, 320, 661, 683, 684
551, 205, 206, 16, 574, 221, 220, 216, 685, 651, 687
552, 3, 72, 345, 197, 84, 358, 357, 215, 214, 628
553, 16, 206, 573, 574, 220, 676, 578, 687, 651, 677
554, 573, 40, 16, 574, 576, 179, 578, 677, 689, 687
555, 109, 349, 347, 575, 426, 405, 429, 625, 695, 692
556, 267, 85, 4, 349, 284, 96, 285, 682, 362, 361
557, 195, 197, 3, 575, 211, 215, 212, 691, 635, 694
558, 4, 269, 267, 575, 286, 283, 285, 701, 636, 700
559, 574, 39, 15, 575, 688, 174, 696, 699, 697, 693
560, 278, 40, 41, 573, 291, 52, 292, 675, 576, 577
561, 39, 40, 277, 574, 51, 289, 288, 688, 689, 684
562, 350, 95, 4, 269, 364, 107, 363, 644, 287, 286
563, 267, 269, 2, 575, 283, 282, 279, 700, 636, 679
564, 17, 16, 206, 573, 28, 220, 219, 579, 578, 676
565, 205, 16, 15, 574, 216, 27, 217, 685, 687, 696
566, 15, 195, 205, 574, 207, 218, 217, 696, 698, 685
567, 267, 39, 277, 574, 280, 288, 290, 683, 688, 684
568, 275, 573, 41, 17, 702, 577, 294, 681, 579, 178
569, 41, 573, 275, 278, 577, 702, 294, 292, 675, 296
570, 275, 203, 573, 17, 598, 703, 702, 681, 223, 579
571, 573, 203, 275, 278, 703, 598, 702, 675, 613, 296
572, 203, 206, 573, 17, 224, 676, 703, 223, 219, 579
573, 573, 206, 203, 278, 676, 224, 703, 675, 623, 613
574, 343, 272, 199, 271, 646, 633, 667, 666, 314, 631
575, 272, 343, 200, 339, 646, 645, 603, 602, 395, 601
576, 343, 272, 200, 199, 646, 603, 645, 667, 633, 242
577, 273, 343, 199, 271, 640, 667, 665, 311, 666, 631
578, 273, 343, 201, 199, 640, 641, 591, 665, 667, 239
579, 343, 273, 201, 344, 640, 591, 641, 392, 590, 592
580, 196, 275, 353, 268, 662, 639, 581, 584, 299, 583
581, 275, 353, 203, 196, 639, 638, 598, 662, 581, 227
582, 353, 275, 203, 354, 639, 598, 638, 380, 599, 595
583, 89, 352, 268, 274, 413, 582, 325, 328, 588, 302
584, 352, 89, 268, 353, 413, 325, 582, 383, 410, 583
585, 66, 196, 352, 202, 254, 580, 381, 255, 230, 586
586, 196, 66, 352, 353, 254, 381, 580, 581, 379, 383
587, 90, 274, 351, 352, 327, 587, 414, 412, 588, 386
588, 351, 274, 90, 276, 587, 327, 414, 617, 305, 330
589, 67, 202, 351, 204, 256, 585, 385, 257, 233, 616
590, 202, 67, 351, 352, 256, 385, 585, 586, 382, 386
591, 68, 351, 201, 204, 384, 593, 259, 258, 616, 236
592, 201, 351, 68, 344, 593, 384, 259, 592, 389, 387
593, 91, 351, 273, 344, 415, 594, 332, 417, 389, 590
594, 273, 351, 91, 276, 594, 415, 332, 308, 617, 329
595, 4, 575, 350, 269, 701, 627, 363, 286, 636, 644
596, 350, 575, 4, 108, 627, 701, 363, 366, 626, 110
597, 575, 574, 349, 347, 699, 659, 695, 692, 660, 405
598, 349, 574, 575, 267, 659, 699, 695, 682, 683, 700
599, 349, 575, 4, 267, 695, 701, 361, 682, 700, 285
600, 4, 575, 349, 108, 701, 695, 361, 110, 626, 365
601, 348, 575, 3, 109, 690, 694, 355, 360, 625, 112
602, 3, 575, 348, 195, 694, 690, 355, 212, 691, 647
603, 434, 7, 5, 439, 705, 114, 704, 706, 441, 440
604, 6, 434, 5, 10, 436, 704, 113, 121, 437, 432
605, 12, 7, 8, 434, 433, 115, 123, 438, 705, 435
606, 6, 8, 5, 434, 116, 430, 113, 436, 435, 704
607, 434, 8, 5, 7, 435, 430, 704, 705, 115, 114
608, 439, 9, 12, 11, 442, 431, 707, 443, 118, 119
609, 439, 7, 12, 434, 441, 433, 707, 706, 705, 438
610, 12, 7, 439, 11, 433, 441, 707, 119, 124, 443
611, 10, 12, 439, 9, 120, 707, 708, 117, 431, 442
612, 439, 12, 10, 434, 707, 120, 708, 706, 438, 437
613, 439, 5, 10, 9, 440, 432, 708, 442, 122, 117
614, 10, 5, 439, 434, 432, 440, 708, 437, 704, 706
615, 523, 154, 526, 711, 549, 551, 553, 713, 712, 714
616, 154, 155, 526, 711, 166, 552, 551, 712, 715, 714
617, 523, 470, 153, 710, 717, 716, 548, 719, 718, 720
618, 153, 470, 129, 710, 716, 496, 457, 720, 718, 721
619, 474, 149, 527, 709, 723, 532, 722, 725, 724, 726
620, 523, 130, 470, 710, 727, 495, 717, 719, 728, 718
621, 473, 155, 131, 711, 729, 459, 498, 730, 715, 731
622, 153, 129, 154, 710, 457, 455, 165, 720, 721, 732
623, 477, 523, 153, 530, 734, 548, 733, 735, 550, 546
624, 529, 472, 476, 471, 737, 488, 736, 738, 519, 491
625, 524, 523, 477, 530, 570, 734, 739, 547, 550, 735
626, 159, 475, 521, 528, 741, 740, 533, 560, 742, 562
627, 127, 471, 529, 476, 490, 738, 743, 486, 491, 736
628, 473, 526, 155, 711, 744, 552, 729, 730, 714, 715
629, 130, 523, 154, 710, 727, 549, 456, 728, 719, 732
630, 471, 467, 470, 520, 516, 518, 517, 745, 434, 746
631, 471, 472, 467, 520, 519, 514, 516, 745, 747, 434
632, 470, 520, 523, 524, 746, 569, 717, 748, 571, 570
633, 472, 471, 525, 520, 519, 749, 750, 747, 745, 566
634, 468, 467, 472, 520, 512, 514, 513, 751, 434, 747
635, 525, 520, 471, 524, 566, 745, 749, 572, 571, 752
636, 468, 472, 521, 520, 513, 753, 754, 751, 747, 563
637, 471, 520, 470, 524, 745, 746, 517, 752, 571, 748
638, 521, 472, 525, 520, 753, 750, 567, 563, 747, 566
639, 14, 149, 527, 474, 160, 532, 531, 755, 723, 722
640, 126, 529, 476, 127, 756, 736, 487, 138, 743, 486
641, 524, 477, 152, 530, 739, 757, 543, 547, 735, 545
642, 477, 530, 153, 152, 735, 546, 733, 757, 545, 164
643, 475, 159, 158, 528, 741, 170, 758, 742, 560, 559
644, 14, 527, 468, 474, 531, 759, 760, 755, 722, 482
645, 529, 126, 476, 472, 756, 487, 736, 737, 483, 488
646, 129, 130, 154, 710, 141, 456, 455, 721, 728, 732
647, 474, 125, 149, 709, 478, 446, 723, 725, 761, 724
648, 525, 472, 529, 471, 750, 737, 541, 749, 519, 738
649, 153, 477, 470, 523, 733, 497, 716, 548, 734, 717
650, 159, 521, 475, 468, 533, 740, 741, 762, 754, 509
651, 525, 471, 529, 524, 749, 738, 541, 572, 752, 544
652, 524, 477, 523, 470, 739, 734, 570, 748, 497, 717
653, 477, 470, 524, 471, 497, 748, 739, 494, 517, 752
654, 127, 529, 471, 524, 743, 738, 490, 763, 544, 752
655, 473, 130, 470, 523, 499, 495, 500, 764, 727, 717
656, 153, 154, 523, 710, 165, 549, 548, 720, 732, 719
657, 14, 468, 521, 159, 760, 754, 534, 171, 762, 533
658, 127, 471, 128, 524, 490, 489, 139, 763, 752, 765
659, 527, 149, 525, 709, 532, 536, 538, 726, 724, 766
660, 521, 475, 522, 528, 740, 767, 564, 562, 742, 561
661, 522, 133, 156, 157, 768, 462, 555, 556, 465, 168
662, 159, 468, 475, 135, 762, 509, 741, 447, 481, 506
663, 470, 129, 477, 153, 496, 492, 497, 716, 457, 733
664, 477, 128, 471, 524, 493, 489, 494, 739, 765, 752
665, 14, 468, 13, 474, 760, 480, 148, 755, 482, 479
666, 468, 14, 521, 527, 760, 534, 754, 759, 531, 535
667, 529, 525, 150, 472, 541, 537, 539, 737, 750, 769
668, 529, 524, 127, 151, 544, 763, 743, 540, 542, 451
669, 468, 521, 469, 520, 754, 770, 511, 751, 563, 771
670, 473, 523, 470, 520, 764, 717, 500, 772, 569, 746
671, 469, 467, 468, 520, 510, 512, 511, 771, 434, 751
672, 473, 470, 467, 520, 500, 518, 515, 772, 746, 434
673, 130, 129, 470, 710, 141, 496, 495, 728, 721, 718
674, 524, 151, 128, 127, 542, 452, 765, 763, 451, 139
675, 468, 14, 135, 159, 760, 445, 481, 762, 171, 447
676, 468, 13, 135, 14, 480, 147, 481, 760, 148, 445
677, 522, 475, 158, 528, 767, 758, 558, 561, 742, 559
678, 469, 468, 475, 521, 511, 509, 508, 770, 754, 740
679, 474, 14, 125, 13, 755, 444, 478, 479, 148, 136
680, 149, 14, 125, 474, 160, 444, 446, 723, 755, 478
681, 529, 127, 126, 151, 743, 138, 756, 540, 451, 450
682, 475, 135, 158, 159, 506, 466, 758, 741, 447, 170
683, 477, 153, 129, 152, 733, 457, 492, 757, 164, 453
684, 524, 152, 477, 128, 543, 757, 739, 765, 454, 493
685, 475, 158, 135, 134, 758, 466, 506, 507, 464, 146
686, 150, 126, 529, 472, 449, 756, 539, 769, 483, 737
687, 152, 151, 128, 524, 163, 452, 454, 543, 542, 765
688, 125, 126, 150, 472, 137, 449, 448, 484, 483, 769
689, 133, 132, 469, 522, 144, 503, 502, 768, 773, 774
690, 522, 156, 133, 132, 555, 462, 768, 773, 461, 144
691, 134, 475, 158, 522, 507, 758, 464, 775, 767, 558
692, 126, 150, 529, 151, 449, 539, 756, 450, 162, 540
693, 477, 129, 128, 152, 492, 140, 493, 757, 453, 454
694, 469, 521, 522, 520, 770, 564, 774, 771, 563, 565
695, 523, 473, 526, 520, 764, 744, 553, 569, 772, 568
696, 467, 469, 473, 520, 510, 504, 515, 434, 771, 772
697, 522, 132, 469, 473, 773, 503, 774, 776, 501, 504
698, 132, 156, 526, 522, 461, 554, 777, 773, 555, 557
699, 526, 473, 132, 522, 744, 501, 777, 557, 776, 773
700, 522, 158, 133, 157, 558, 463, 768, 556, 169, 465
701, 522, 133, 158, 134, 768, 463, 558, 775, 145, 464
702, 472, 125, 474, 709, 484, 478, 485, 778, 761, 725
703, 475, 134, 469, 522, 507, 505, 508, 767, 775, 774
704, 521, 522, 475, 469, 564, 767, 740, 770, 774, 508
705, 134, 133, 469, 522, 145, 502, 505, 775, 768, 774
706, 523, 526, 473, 711, 553, 744, 764, 713, 714, 730
707, 522, 473, 469, 520, 776, 504, 774, 565, 772, 771
708, 473, 522, 526, 520, 776, 557, 744, 772, 565, 568
709, 132, 155, 131, 473, 460, 459, 143, 501, 729, 498
710, 154, 131, 155, 711, 458, 459, 166, 712, 731, 715
711, 155, 156, 526, 132, 167, 554, 552, 460, 461, 777
712, 155, 132, 526, 473, 460, 777, 552, 729, 501, 744
713, 150, 149, 709, 525, 161, 724, 779, 537, 536, 766
714, 709, 149, 150, 125, 724, 161, 779, 761, 446, 448
715, 709, 472, 150, 525, 778, 769, 779, 766, 750, 537
716, 150, 472, 709, 125, 769, 778, 779, 448, 484, 761
717, 468, 709, 474, 527, 780, 725, 482, 759, 726, 722
718, 474, 709, 468, 472, 725, 780, 482, 485, 778, 513
719, 468, 521, 709, 527, 754, 781, 780, 759, 535, 726
720, 709, 521, 468, 472, 781, 754, 780, 778, 753, 513
721, 521, 525, 709, 527, 567, 766, 781, 535, 538, 726
722, 709, 525, 521, 472, 766, 567, 781, 778, 750, 753
723, 130, 711, 473, 131, 782, 730, 499, 142, 731, 498
724, 711, 130, 473, 523, 782, 499, 730, 713, 727, 764
725, 711, 130, 154, 131, 782, 456, 712, 731, 142, 458
726, 130, 711, 154, 523, 782, 712, 456, 727, 713, 549

** Define element set Eall
*ELSET, ELSET=Eall
Evolumes



***********************************************************
** Element sets for materials and FEM element type (solid, shell, beam, fluid)
*ELSET,ELSET=FEMPart002_MaterialSolid
Evolumes

** Physical constants for SI(mm) unit system with Kelvins
*PHYSICAL CONSTANTS, ABSOLUTE ZERO=0, STEFAN BOLTZMANN=5.670374419e-11

***********************************************************
** Materials
** see information about units at file end
** FreeCAD material name: CalculiX-Steel
** Material (FEMPart (LongPendulum001))
*MATERIAL, NAME=FEMPart002_Material
*ELASTIC
210000,0.3
*DENSITY
7.9E-09
*EXPANSION, ZERO=0
1.2E-05

***********************************************************
** Sections
*SOLID SECTION, ELSET=FEMPart002_MaterialSolid, MATERIAL=FEMPart002_Material

***********************************************************
** At least one step is needed to run an CalculiX analysis of FreeCAD
*STEP, INC=2000
*STATIC
1.0,1.0,1e-05,1.0

***********************************************************
** Automatic 3-2-1 constraints
** nodeXYZ 167: x=-19.7989898732, y=-5, z=28.2010101268
** nodeYZ 164: x=19.7989898732, y=-5, z=28.2010101268
** nodeZ 140: x=19.7989898732, y=5, z=28.2010101268
*BOUNDARY
167,1,1,0
167,2,2,0
167,3,3,0
164,2,2,0
164,3,3,0
140,3,3,0

***********************************************************
** MbDPart D'Alembert element loads
*DLOAD
15,GRAV,14932441.17223,0.2355777285127,-2.529374236064E-18,-0.9718555107776
16,GRAV,14605758.50699,0.1939423706865,-2.410181058242E-18,-0.9810129238968
17,GRAV,14021931.14419,0.1662575305819,-2.32911185523E-18,-0.9860823665013
18,GRAV,13315979.76038,0.1612975804845,-2.314492277118E-18,-0.9869058164434
19,GRAV,12672872.13593,0.1839813955386,-2.381347842316E-18,-0.9829297259192
20,GRAV,12286255.32608,0.230601712153,-2.515560001062E-18,-0.9730482261184
21,GRAV,12286255.31578,0.2863681888527,-2.670420925718E-18,-0.9581196482764
22,GRAV,12672872.10864,0.331690226849,-2.791528430055E-18,-0.9433883576835
23,GRAV,13315979.72491,0.3533267327107,-2.847748344379E-18,-0.9354999839401
24,GRAV,14021931.1105,0.3486187387038,-2.835520488979E-18,-0.9372646237987
25,GRAV,14605758.48332,0.3221038167507,-2.766079461456E-18,-0.9467043526015
26,GRAV,14932441.16375,0.2814617981637,-2.65679217352E-18,-0.9595724340426
27,GRAV,15023255.58747,0.2585927040045,-2.593807307501E-18,-0.9659864457826
28,GRAV,14932441.17223,0.2355777285127,-2.529374236064E-18,-0.9718555107776
29,GRAV,14605758.50699,0.1939423706865,-2.410181058242E-18,-0.9810129238968
30,GRAV,14021931.14419,0.1662575305819,-2.32911185523E-18,-0.9860823665013
31,GRAV,13315979.76038,0.1612975804845,-2.314492277118E-18,-0.9869058164434
32,GRAV,12672872.13593,0.1839813955386,-2.381347842316E-18,-0.9829297259192
33,GRAV,12286255.32608,0.230601712153,-2.515560001062E-18,-0.9730482261184
34,GRAV,12286255.31578,0.2863681888527,-2.670420925718E-18,-0.9581196482764
35,GRAV,12672872.10864,0.331690226849,-2.791528430055E-18,-0.9433883576835
36,GRAV,13315979.72491,0.3533267327107,-2.847748344379E-18,-0.9354999839401
37,GRAV,14021931.1105,0.3486187387038,-2.835520488979E-18,-0.9372646237987
38,GRAV,14605758.48332,0.3221038167507,-2.766079461456E-18,-0.9467043526015
39,GRAV,14932441.16375,0.2814617981637,-2.65679217352E-18,-0.9595724340426
40,GRAV,14134813.0668,0.2488850180683,-2.566829444757E-18,-0.9685330390757
41,GRAV,13997610.27155,0.2317476401897,-2.51862781553E-18,-0.9727759409373
42,GRAV,13756730.78509,0.2212257899404,-2.488761359242E-18,-0.9752226155423
43,GRAV,13473230.77365,0.2204354065679,-2.486534601303E-18,-0.975401574497
44,GRAV,13222802.12201,0.2301684642072,-2.514230188347E-18,-0.9731507992518
45,GRAV,13076033.36886,0.2480978359923,-2.564729350361E-18,-0.9687349811873
46,GRAV,13076033.36499,0.2690571331031,-2.622932348305E-18,-0.9631242179108
47,GRAV,13222802.11155,0.2867947409592,-2.671478737838E-18,-0.9579920545381
48,GRAV,13473230.75963,0.2963505703548,-2.697347497233E-18,-0.9550792320276
49,GRAV,13756730.77135,0.2955764868322,-2.695229802979E-18,-0.9553190778122
50,GRAV,13997610.26167,0.2852394889904,-2.667172203606E-18,-0.9584562764782
51,GRAV,14134813.06321,0.2682743419336,-2.620672699629E-18,-0.9633425545776
52,GRAV,14134813.0668,0.2488850180683,-2.566829444757E-18,-0.9685330390757
53,GRAV,13997610.27155,0.2317476401897,-2.51862781553E-18,-0.9727759409373
54,GRAV,13756730.78509,0.2212257899404,-2.488761359242E-18,-0.9752226155423
55,GRAV,13473230.77365,0.2204354065679,-2.486534601303E-18,-0.975401574497
56,GRAV,13222802.12201,0.2301684642072,-2.514230188347E-18,-0.9731507992518
57,GRAV,13076033.36886,0.2480978359923,-2.564729350361E-18,-0.9687349811873
58,GRAV,13076033.36499,0.2690571331031,-2.622932348305E-18,-0.9631242179108
59,GRAV,13222802.11155,0.2867947409592,-2.671478737838E-18,-0.9579920545381
60,GRAV,13473230.75963,0.2963505703548,-2.697347497233E-18,-0.9550792320276
61,GRAV,13756730.77135,0.2955764868322,-2.695229802979E-18,-0.9553190778122
62,GRAV,13997610.26167,0.2852394889904,-2.667172203606E-18,-0.9584562764782
63,GRAV,14134813.06321,0.2682743419336,-2.620672699629E-18,-0.9633425545776
64,GRAV,14172111.7559,0.2585927033155,-2.593878334171E-18,-0.965986445967
65,GRAV,14172111.7559,0.2585927033155,-2.593878334171E-18,-0.965986445967
66,GRAV,14172111.7559,0.2585927033155,-2.593878334171E-18,-0.965986445967
67,GRAV,8080034.25183,0.3007418991865,-2.710063493912E-18,-0.953705567811
68,GRAV,12758468.60611,0.2853440118454,-2.667580068833E-18,-0.9584251639559
69,GRAV,8080034.25183,0.3007418991865,-2.710063493912E-18,-0.953705567811
70,GRAV,3409451.287447,0.3576695992673,-2.862799414183E-18,-0.9338481984562
71,GRAV,8080034.267493,0.2159450839198,-2.474586661475E-18,-0.9764055103956
72,GRAV,12758468.61603,0.2316415502202,-2.518450818563E-18,-0.9728012089896
73,GRAV,8080034.267493,0.2159450839198,-2.474586661475E-18,-0.9764055103956
74,GRAV,3409451.324567,0.1567102317706,-2.304744537319E-18,-0.9876446239708
75,GRAV,3390956.555889,0.258592664648,-2.597864227033E-18,-0.9659864563182
76,GRAV,12753538.70326,0.2585927019627,-2.594017779364E-18,-0.9659864463292
77,GRAV,3390956.555889,0.258592664648,-2.597864227033E-18,-0.9659864563182
78,GRAV,12753538.70326,0.2585927019627,-2.594017779364E-18,-0.9659864463292
79,GRAV,5267374.100891,0.166387842911,-2.33160310598E-18,-0.9860603864528
80,GRAV,4937408.886313,-0.01674525773094,-1.75949222176E-18,-0.9998597883421
81,GRAV,4306483.964097,-0.1822069904739,-1.190276236191E-18,-0.9832601957887
82,GRAV,3436765.441962,-0.3030332912322,-7.423917419443E-19,-0.9529799706211
83,GRAV,2445230.862532,-0.320714913916,-6.763060565418E-19,-0.9471757724899
84,GRAV,1616146.636049,-0.05067588882502,-1.654143519118E-18,-0.9987151517284
85,GRAV,1616146.526418,0.5428505115054,-3.30233896661E-18,-0.8398293410916
86,GRAV,2445230.664569,0.7510257391746,-3.652480341521E-18,-0.6602729277331
87,GRAV,3436765.249558,0.7386086279635,-3.634983198676E-18,-0.6741344781999
88,GRAV,4306483.81055,0.64906950752,-3.498692632703E-18,-0.7607291071122
89,GRAV,4937408.788273,0.514029746655,-3.233429863025E-18,-0.8577723588189
90,GRAV,5267374.067254,0.3484948338207,-2.837305797757E-18,-0.9373107013153
91,GRAV,5376958.829575,0.258592683422,-2.595928973266E-18,-0.9659864512925
92,GRAV,5267374.100891,0.166387842911,-2.33160310598E-18,-0.9860603864528
93,GRAV,4937408.886313,-0.01674525773094,-1.75949222176E-18,-0.9998597883421
94,GRAV,4306483.964097,-0.1822069904739,-1.190276236191E-18,-0.9832601957887
95,GRAV,3436765.441962,-0.3030332912322,-7.423917419443E-19,-0.9529799706211
96,GRAV,2445230.862532,-0.320714913916,-6.763060565418E-19,-0.9471757724899
97,GRAV,1616146.636049,-0.05067588882502,-1.654143519118E-18,-0.9987151517284
98,GRAV,1616146.526418,0.5428505115054,-3.30233896661E-18,-0.8398293410916
99,GRAV,2445230.664569,0.7510257391746,-3.652480341521E-18,-0.6602729277331
100,GRAV,3436765.249558,0.7386086279635,-3.634983198676E-18,-0.6741344781999
101,GRAV,4306483.81055,0.64906950752,-3.498692632703E-18,-0.7607291071122
102,GRAV,4937408.788273,0.514029746655,-3.233429863025E-18,-0.8577723588189
103,GRAV,5267374.067254,0.3484948338207,-2.837305797757E-18,-0.9373107013153
104,GRAV,14961772.83687,0.2432957098821,-2.551099065128E-18,-0.9699521625075
105,GRAV,14961772.83123,0.2738251209889,-2.63587782657E-18,-0.9617794981779
106,GRAV,14904056.77223,0.2278148864738,-2.507404516733E-18,-0.9737044610666
107,GRAV,14904056.76091,0.2891101594182,-2.677618652357E-18,-0.9572958350067
108,GRAV,14686654.81784,0.200089760173,-2.427988314479E-18,-0.9797775706118
109,GRAV,13907299.94171,0.1632296853998,-2.320162157059E-18,-0.9865880953084
110,GRAV,14525442.82832,0.1877190012741,-2.39207982323E-18,-0.9822227733873
111,GRAV,14136692.34029,0.1692347148971,-2.337894911703E-18,-0.9855757765254
112,GRAV,13195217.14913,0.1627759489165,-2.318886893147E-18,-0.9866630582191
113,GRAV,13436771.72215,0.1598454365427,-2.310171608021E-18,-0.9871420548313
114,GRAV,12766022.73259,0.1778436110796,-2.363362471156E-18,-0.9840587634883
115,GRAV,12321887.72397,0.2213320791452,-2.489214768454E-18,-0.9751984981229
116,GRAV,12580222.41084,0.190202505335,-2.399504032262E-18,-0.9817448787563
117,GRAV,12251741.85952,0.2771857382046,-2.645357774539E-18,-0.9608163542197
118,GRAV,12251741.86641,0.239903356714,-2.541826326744E-18,-0.9707967755598
119,GRAV,12766022.70309,0.3375712024408,-2.806918599225E-18,-0.9412999964319
120,GRAV,12321887.71027,0.2954723609811,-2.695098899538E-18,-0.9553512882161
121,GRAV,12580222.38581,0.3257091877362,-2.775799817294E-18,-0.9454700021811
122,GRAV,13195217.11419,0.3519248010156,-2.844144500321E-18,-0.9360282765121
123,GRAV,14136692.30768,0.3457866349543,-2.828171421364E-18,-0.938313168983
124,GRAV,13436771.68615,0.3547026899125,-2.851281181207E-18,-0.9349791450983
125,GRAV,13907299.90694,0.35149429768,-2.842964270933E-18,-0.936190022751
126,GRAV,14525442.80239,0.3280993039601,-2.781909425698E-18,-0.9446432378104
127,GRAV,14686654.7964,0.3161614063396,-2.750313902993E-18,-0.9487054153642
128,GRAV,14791885.01571,0.2378185381447,-2.535705860808E-18,-0.9713096019883
129,GRAV,14786987.2281,0.2793405161974,-2.651006985508E-18,-0.9601921037014
130,GRAV,14675486.21993,0.2586796066177,-2.594076650609E-18,-0.9659631779318
131,GRAV,14260142.96456,0.2466954855638,-2.560690862619E-18,-0.9690930488877
132,GRAV,14255232.33978,0.2705440716797,-2.626915470255E-18,-0.9627075907455
133,GRAV,14391771.61057,0.2586813195398,-2.594105274338E-18,-0.9659627192191
134,GRAV,14492212.41987,0.2004554961011,-2.429062088474E-18,-0.9797028090614
135,GRAV,14541267.6731,0.2227735429794,-2.493101867318E-18,-0.9748702213877
136,GRAV,13968833.26144,0.1764607044004,-2.359182752439E-18,-0.9843076855346
137,GRAV,14165082.61262,0.1952425655099,-2.413992671301E-18,-0.9807549850055
138,GRAV,13343386.33905,0.1721397887253,-2.346533833398E-18,-0.9850725319171
139,GRAV,13647226.87318,0.18258187837,-2.377155425437E-18,-0.9831906517512
140,GRAV,12767524.5253,0.1924294899976,-2.405961041183E-18,-0.9813108026407
141,GRAV,13103326.93168,0.1895303170132,-2.39749056037E-18,-0.9818748692847
142,GRAV,12428445.36218,0.2341368379561,-2.525544622737E-18,-0.972203652077
143,GRAV,12687932.42931,0.2176879767858,-2.478771903979E-18,-0.9760184141515
144,GRAV,12434219.82932,0.2829575609191,-2.661113209318E-18,-0.9591324302299
145,GRAV,12541914.23144,0.2586774404258,-2.594276594102E-18,-0.9659637580234
146,GRAV,12768508.25915,0.3231922201291,-2.769132718105E-18,-0.9463333391824
147,GRAV,12694834.43851,0.2987289194098,-2.703843615438E-18,-0.9543380075782
148,GRAV,13340113.02245,0.3432941063628,-2.821773078271E-18,-0.939227957706
149,GRAV,13100952.43086,0.3262730855313,-2.777230841744E-18,-0.9452755543533
150,GRAV,13968151.44879,0.3389405099412,-2.810373839806E-18,-0.940807807536
151,GRAV,13643226.30266,0.3333487800507,-2.795779508619E-18,-0.9428035802004
152,GRAV,14491405.78864,0.3158248253079,-2.749435368128E-18,-0.9488175165538
153,GRAV,14163582.43944,0.320912669655,-2.762964623595E-18,-0.947108789134
154,GRAV,14535580.00526,0.2941748372592,-2.69137208719E-18,-0.9557516231341
155,GRAV,14086899.07743,0.2256850206392,-2.501424595358E-18,-0.974200324091
156,GRAV,14291112.71846,0.2318157261637,-2.518794446437E-18,-0.9727597180718
157,GRAV,13792607.92923,0.2131343227223,-2.465626030076E-18,-0.9770229068337
158,GRAV,14009538.4039,0.2117336424418,-2.461588877429E-18,-0.977327409141
159,GRAV,13448702.89739,0.2115462175907,-2.46110393526E-18,-0.9773679950884
160,GRAV,13628068.4394,0.2029488475724,-2.436342603101E-18,-0.9791893408678
161,GRAV,13134380.15407,0.2231888957944,-2.494415464186E-18,-0.9747752134693
162,GRAV,13229887.09364,0.2084301811923,-2.452174095941E-18,-0.9780372485586
163,GRAV,12955045.48686,0.2457647058358,-2.558208649898E-18,-0.969329515369
164,GRAV,12928339.7799,0.2291539288391,-2.511385185691E-18,-0.9733901976585
165,GRAV,12960808.11132,0.2714512908922,-2.629536528924E-18,-0.9624521789019
166,GRAV,12825628.84089,0.2586755662542,-2.594240052165E-18,-0.9659642599098
167,GRAV,13135520.75831,0.2932905458483,-2.689110129271E-18,-0.9560233552147
168,GRAV,12935289.75731,0.2874940793833,-2.673410022871E-18,-0.9577824149146
169,GRAV,13445275.14909,0.3053008689446,-2.721431041853E-18,-0.9522559421824
170,GRAV,13227535.31853,0.3079806290194,-2.728630087188E-18,-0.9513926277562
171,GRAV,13791900.52516,0.3035316157618,-2.716650923165E-18,-0.952821367431
172,GRAV,13623973.85285,0.3137035069754,-2.74386816938E-18,-0.9495209896107
173,GRAV,14086085.78649,0.2912197322413,-2.683410410354E-18,-0.9566561908822
174,GRAV,14008022.32194,0.3049140626394,-2.720340712817E-18,-0.9523798687523
175,GRAV,14285409.03291,0.2852863617224,-2.667274254173E-18,-0.9584423257636
176,GRAV,14791885.01571,0.2378185381447,-2.535705860808E-18,-0.9713096019883
177,GRAV,14786987.2281,0.2793405161974,-2.651006985508E-18,-0.9601921037014
178,GRAV,14675486.21993,0.2586796066177,-2.594076650609E-18,-0.9659631779318
179,GRAV,14260142.96456,0.2466954855638,-2.560690862619E-18,-0.9690930488877
180,GRAV,14255232.33978,0.2705440716797,-2.626915470255E-18,-0.9627075907455
181,GRAV,14391771.61057,0.2586813195398,-2.594105274338E-18,-0.9659627192191
182,GRAV,14492212.41987,0.2004554961011,-2.429062088474E-18,-0.9797028090614
183,GRAV,14541267.6731,0.2227735429794,-2.493101867318E-18,-0.9748702213877
184,GRAV,13968833.26144,0.1764607044004,-2.359182752439E-18,-0.9843076855346
185,GRAV,14165082.61262,0.1952425655099,-2.413992671301E-18,-0.9807549850055
186,GRAV,13343386.33905,0.1721397887253,-2.346533833398E-18,-0.9850725319171
187,GRAV,13647226.87318,0.18258187837,-2.377155425437E-18,-0.9831906517512
188,GRAV,12767524.5253,0.1924294899976,-2.405961041183E-18,-0.9813108026407
189,GRAV,13103326.93168,0.1895303170132,-2.39749056037E-18,-0.9818748692847
190,GRAV,12428445.36218,0.2341368379561,-2.525544622737E-18,-0.972203652077
191,GRAV,12687932.42931,0.2176879767858,-2.478771903979E-18,-0.9760184141515
192,GRAV,12434219.82932,0.2829575609191,-2.661113209318E-18,-0.9591324302299
193,GRAV,12541914.23144,0.2586774404258,-2.594276594102E-18,-0.9659637580234
194,GRAV,12768508.25915,0.3231922201291,-2.769132718105E-18,-0.9463333391824
195,GRAV,12694834.43851,0.2987289194098,-2.703843615438E-18,-0.9543380075782
196,GRAV,13340113.02245,0.3432941063628,-2.821773078271E-18,-0.939227957706
197,GRAV,13100952.43086,0.3262730855313,-2.777230841744E-18,-0.9452755543533
198,GRAV,13968151.44879,0.3389405099412,-2.810373839806E-18,-0.940807807536
199,GRAV,13643226.30266,0.3333487800507,-2.795779508619E-18,-0.9428035802004
200,GRAV,14491405.78864,0.3158248253079,-2.749435368128E-18,-0.9488175165538
201,GRAV,14163582.43944,0.320912669655,-2.762964623595E-18,-0.947108789134
202,GRAV,14535580.00526,0.2941748372592,-2.69137208719E-18,-0.9557516231341
203,GRAV,14086899.07743,0.2256850206392,-2.501424595358E-18,-0.974200324091
204,GRAV,14291112.71846,0.2318157261637,-2.518794446437E-18,-0.9727597180718
205,GRAV,13792607.92923,0.2131343227223,-2.465626030076E-18,-0.9770229068337
206,GRAV,14009538.4039,0.2117336424418,-2.461588877429E-18,-0.977327409141
207,GRAV,13448702.89739,0.2115462175907,-2.46110393526E-18,-0.9773679950884
208,GRAV,13628068.4394,0.2029488475724,-2.436342603101E-18,-0.9791893408678
209,GRAV,13134380.15407,0.2231888957944,-2.494415464186E-18,-0.9747752134693
210,GRAV,13229887.09364,0.2084301811923,-2.452174095941E-18,-0.9780372485586
211,GRAV,12955045.48686,0.2457647058358,-2.558208649898E-18,-0.969329515369
212,GRAV,12928339.7799,0.2291539288391,-2.511385185691E-18,-0.9733901976585
213,GRAV,12960808.11132,0.2714512908922,-2.629536528924E-18,-0.9624521789019
214,GRAV,12825628.84089,0.2586755662542,-2.594240052165E-18,-0.9659642599098
215,GRAV,13135520.75831,0.2932905458483,-2.689110129271E-18,-0.9560233552147
216,GRAV,12935289.75731,0.2874940793833,-2.673410022871E-18,-0.9577824149146
217,GRAV,13445275.14909,0.3053008689446,-2.721431041853E-18,-0.9522559421824
218,GRAV,13227535.31853,0.3079806290194,-2.728630087188E-18,-0.9513926277562
219,GRAV,13791900.52516,0.3035316157618,-2.716650923165E-18,-0.952821367431
220,GRAV,13623973.85285,0.3137035069754,-2.74386816938E-18,-0.9495209896107
221,GRAV,14086085.78649,0.2912197322413,-2.683410410354E-18,-0.9566561908822
222,GRAV,14008022.32194,0.3049140626394,-2.720340712817E-18,-0.9523798687523
223,GRAV,14285409.03291,0.2852863617224,-2.667274254173E-18,-0.9584423257636
224,GRAV,14141054.87465,0.2487750543807,-2.566521377865E-18,-0.968561289913
225,GRAV,14141054.87103,0.2683837129989,-2.620973715192E-18,-0.9633120899257
226,GRAV,14165751.4486,0.261929403273,-2.603133565144E-18,-0.9650870363346
227,GRAV,14165751.44984,0.2552529151027,-2.58459326654E-18,-0.966874319305
228,GRAV,14142498.98351,0.2491872209352,-2.56767374396E-18,-0.9684553314028
229,GRAV,14142498.98004,0.2679737335095,-2.619843019779E-18,-0.9634262183214
230,GRAV,14167235.80778,0.2556629765096,-2.585734435592E-18,-0.9667659708752
231,GRAV,14167235.8067,0.2615200533983,-2.601999266997E-18,-0.96519804272
232,GRAV,13996434.29293,0.2310277196158,-2.516589815943E-18,-0.9729471685396
233,GRAV,14071657.90603,0.2370544769321,-2.533613380353E-18,-0.9714963586995
234,GRAV,14124906.46406,0.2433602096192,-2.551350502013E-18,-0.9699359815854
235,GRAV,13756514.6702,0.2207436552683,-2.48738662218E-18,-0.9753318607832
236,GRAV,13882311.18101,0.2245762917595,-2.498290743003E-18,-0.9744565096399
237,GRAV,13471810.08448,0.219980254399,-2.485236230802E-18,-0.9755043247852
238,GRAV,13613856.89048,0.2189898109724,-2.482395424443E-18,-0.9757271456151
239,GRAV,13218381.25613,0.2298232522867,-2.513252393071E-18,-0.9732323837134
240,GRAV,13336062.69058,0.2236388190543,-2.495675780977E-18,-0.9746720877362
241,GRAV,13069826.65715,0.2479691986797,-2.564370058889E-18,-0.9687679167407
242,GRAV,13127365.80554,0.2381319273681,-2.536741306517E-18,-0.9712328171803
243,GRAV,13069826.65324,0.2691850208092,-2.623285414937E-18,-0.9630884822133
244,GRAV,13050143.10169,0.2585927022699,-2.593986116608E-18,-0.9659864462469
245,GRAV,13218381.24554,0.2871345432158,-2.672403195226E-18,-0.9578902620302
246,GRAV,13127365.798,0.2789381016162,-2.650058163625E-18,-0.9603090832991
247,GRAV,13471810.07029,0.2967961837381,-2.698550510976E-18,-0.9549408491203
248,GRAV,13336062.67773,0.2932111359061,-2.688874884579E-18,-0.9560477131298
249,GRAV,13756514.65629,0.2960487189109,-2.696505298208E-18,-0.95517284092
250,GRAV,13613856.87593,0.2977654851274,-2.701151825239E-18,-0.9546390500429
251,GRAV,13996434.28279,0.2859486714158,-2.669102756897E-18,-0.9582449359718
252,GRAV,13882311.1685,0.2922913406111,-2.686332299266E-18,-0.9563293220454
253,GRAV,14071657.89809,0.2800031189679,-2.652879771264E-18,-0.9599990902955
254,GRAV,14124906.45845,0.2737611622185,-2.635772540168E-18,-0.961797705373
255,GRAV,13996434.29293,0.2310277196158,-2.516589815943E-18,-0.9729471685396
256,GRAV,14071657.90603,0.2370544769321,-2.533613380353E-18,-0.9714963586995
257,GRAV,14126316.93177,0.2437739814219,-2.552511814985E-18,-0.9698320710214
258,GRAV,13756514.6702,0.2207436552683,-2.48738662218E-18,-0.9753318607832
259,GRAV,13882311.18101,0.2245762917595,-2.498290743003E-18,-0.9744565096399
260,GRAV,13471810.08448,0.219980254399,-2.485236230802E-18,-0.9755043247852
261,GRAV,13613856.89048,0.2189898109724,-2.482395424443E-18,-0.9757271456151
262,GRAV,13218381.25613,0.2298232522867,-2.513252393071E-18,-0.9732323837134
263,GRAV,13336062.69058,0.2236388190543,-2.495675780977E-18,-0.9746720877362
264,GRAV,13069826.65715,0.2479691986797,-2.564370058889E-18,-0.9687679167407
265,GRAV,13127365.80554,0.2381319273681,-2.536741306517E-18,-0.9712328171803
266,GRAV,13069826.65324,0.2691850208092,-2.623285414937E-18,-0.9630884822133
267,GRAV,13050143.10169,0.2585927022699,-2.593986116608E-18,-0.9659864462469
268,GRAV,13218381.24554,0.2871345432158,-2.672403195226E-18,-0.9578902620302
269,GRAV,13127365.798,0.2789381016162,-2.650058163625E-18,-0.9603090832991
270,GRAV,13471810.07029,0.2967961837381,-2.698550510976E-18,-0.9549408491203
271,GRAV,13336062.67773,0.2932111359061,-2.688874884579E-18,-0.9560477131298
272,GRAV,13756514.65629,0.2960487189109,-2.696505298208E-18,-0.95517284092
273,GRAV,13613856.87593,0.2977654851274,-2.701151825239E-18,-0.9546390500429
274,GRAV,13996434.28279,0.2859486714158,-2.669102756897E-18,-0.9582449359718
275,GRAV,13882311.1685,0.2922913406111,-2.686332299266E-18,-0.9563293220454
276,GRAV,14071657.89809,0.2800031189679,-2.652879771264E-18,-0.9599990902955
277,GRAV,14126316.92631,0.2733508153091,-2.634645313624E-18,-0.9619144097943
278,GRAV,14167235.80778,0.2556629765096,-2.585734435592E-18,-0.9667659708752
279,GRAV,14167235.8067,0.2615200533983,-2.601999266997E-18,-0.96519804272
280,GRAV,14149074.19039,0.267300091104,-2.617984048034E-18,-0.963613335989
281,GRAV,14150525.06629,0.2668903269148,-2.616853047111E-18,-0.9637269081017
282,GRAV,14149074.19362,0.2498642530471,-2.569565532829E-18,-0.9682808761146
283,GRAV,14150525.06936,0.2502759551801,-2.570715705858E-18,-0.9681745432817
284,GRAV,6521467.311679,0.310741252846,-2.737389419677E-18,-0.9504945416885
285,GRAV,9639204.164653,0.2939579576849,-2.691406432313E-18,-0.9558183504797
286,GRAV,6521467.331086,0.205678827526,-2.445635924739E-18,-0.9786195480919
287,GRAV,9639204.177783,0.222877279276,-2.494018677776E-18,-0.9748465101659
288,GRAV,6512890.202277,0.2760835528991,-2.643615170439E-18,-0.9611336388966
289,GRAV,9633403.339519,0.246719313404,-2.56135600953E-18,-0.9690869828831
290,GRAV,6512890.202277,0.2760835528991,-2.643615170439E-18,-0.9611336388966
291,GRAV,9633403.339519,0.246719313404,-2.56135600953E-18,-0.9690869828831
292,GRAV,3399188.855733,0.3251550868581,-2.778152497663E-18,-0.9456607052692
293,GRAV,3390956.555889,0.258592664648,-2.597864227033E-18,-0.9659864563182
294,GRAV,3390956.555889,0.258592664648,-2.597864227033E-18,-0.9659864563182
295,GRAV,3399188.880554,0.1907776996633,-2.404992703149E-18,-0.9816332662003
296,GRAV,12755730.00532,0.2764529421312,-2.643292575935E-18,-0.9610274557925
297,GRAV,12753538.70326,0.2585927019627,-2.594017779364E-18,-0.9659864463292
298,GRAV,12753538.70326,0.2585927019627,-2.594017779364E-18,-0.9659864463292
299,GRAV,12755730.01193,0.2406436145835,-2.543851730799E-18,-0.9706135434663
300,GRAV,5298616.328825,0.1977432123298,-2.42334051327E-18,-0.980253855885
301,GRAV,5298616.306533,0.3184320345815,-2.758487791088E-18,-0.9479456943055
302,GRAV,5241549.249484,0.1345191243237,-2.236457096198E-18,-0.9909109976134
303,GRAV,5241549.204414,0.3785247552102,-2.914049448559E-18,-0.9255911676832
304,GRAV,4856511.483493,-0.04757355536436,-1.657203378206E-18,-0.9988677374057
305,GRAV,5022850.08032,0.01307726653962,-1.856801950358E-18,-0.9999144888939
306,GRAV,4177649.230434,-0.2083243152078,-1.095800109144E-18,-0.9780598037407
307,GRAV,4438194.325498,-0.1575048316655,-1.278434910507E-18,-0.9875182165419
308,GRAV,3600433.511755,-0.2892691908739,-7.947790118616E-19,-0.9572477919594
309,GRAV,2613459.484339,-0.3328637683581,-6.28605759236E-19,-0.9429749263445
310,GRAV,3273882.348365,-0.3180976243453,-6.846011368114E-19,-0.948057963094
311,GRAV,1529881.840902,0.04346990091123,-1.962452911354E-18,-0.9990547370964
312,GRAV,2277465.952164,-0.3067084441338,-7.309058556863E-19,-0.9518035145433
313,GRAV,1715236.17869,-0.1342690583361,-1.366783142957E-18,-0.9909449126836
314,GRAV,1529881.763693,0.4614654452229,-3.123207272233E-18,-0.8871581836771
315,GRAV,2277465.758601,0.7412044845556,-3.640911661187E-18,-0.6712793100303
316,GRAV,1715236.040959,0.6113819572376,-3.437421619571E-18,-0.7913356445683
317,GRAV,3273882.151222,0.7491992441472,-3.648435205326E-18,-0.6623446931691
318,GRAV,2613459.282575,0.7594510900388,-3.661913652532E-18,-0.6505644025297
319,GRAV,4438194.180074,0.6297983069186,-3.464739320217E-18,-0.776758709383
320,GRAV,3600433.323703,0.7288175233852,-3.621958750192E-18,-0.6847079798035
321,GRAV,4177649.068364,0.669095806274,-3.532355215507E-18,-0.7431761581392
322,GRAV,4856511.374917,0.540239433793,-3.289532865724E-18,-0.8415113511861
323,GRAV,5022849.992555,0.4882230258472,-3.176259750346E-18,-0.8727188992067
324,GRAV,5098510.698374,0.1719065060317,-2.34799999776E-18,-0.9851132692153
325,GRAV,4975001.377023,0.339161607088,-2.813250071569E-18,-0.9407281245277
326,GRAV,4836221.576711,0.2521026447503,-2.578233668402E-18,-0.967700499385
327,GRAV,4680205.857321,0.01405182648666,-1.86021569983E-18,-0.9999012682122
328,GRAV,4710206.599333,0.1133433622452,-2.172559925229E-18,-0.9935558777618
329,GRAV,4197266.387276,-0.151591046322,-1.299628760586E-18,-0.9884432986646
330,GRAV,4277605.799563,-0.0393192331602,-1.685271553919E-18,-0.9992266999554
331,GRAV,3358830.830836,-0.2217103413895,-1.047839067666E-18,-0.9751125701789
332,GRAV,3715949.383372,-0.1374426444101,-1.350066615552E-18,-0.990509727109
333,GRAV,2484512.605045,-0.2559289378035,-9.228489047284E-19,-0.9666955977942
334,GRAV,2914959.435678,-0.1751447831987,-1.217602812747E-18,-0.9845426882153
335,GRAV,1872291.127983,0.03547713264093,-1.934830769549E-18,-0.9993704883874
336,GRAV,2282619.084651,-0.07347878242911,-1.573989224237E-18,-0.9972967805687
337,GRAV,1997384.014716,0.5249787065382,-3.262384605623E-18,-0.8511153609714
338,GRAV,2161113.012428,0.3266034596442,-2.784967115533E-18,-0.9451614571852
339,GRAV,2520274.965634,0.6697632462227,-3.536239962401E-18,-0.7425747060123
340,GRAV,3516718.527888,0.6617680434395,-3.521082425444E-18,-0.7497086478641
341,GRAV,3124345.899791,0.5950609105456,-3.401869346269E-18,-0.8036806036857
342,GRAV,4119996.143097,0.6064181679749,-3.422084586495E-18,-0.7951459020519
343,GRAV,4788354.134354,0.4990465591946,-3.200611169845E-18,-0.8665751737478
344,GRAV,4321949.1016,0.5239055037789,-3.255296701853E-18,-0.8517763926701
345,GRAV,4686777.428346,0.4099783024588,-2.992604585153E-18,-0.9120952754581
346,GRAV,3833690.231602,0.362789393787,-2.875341967798E-18,-0.9318711583452
347,GRAV,3967241.313504,0.2209942258437,-2.491288156283E-18,-0.9752751161307
348,GRAV,3287711.316482,0.4230788806782,-3.026078901485E-18,-0.906092854361
349,GRAV,3000759.288006,0.120946331599,-2.197883407656E-18,-0.9926590476456
350,GRAV,2821831.578401,0.310796564503,-2.741109081666E-18,-0.9504764570957
351,GRAV,3590639.41324,0.1010382044708,-2.136002737194E-18,-0.9948825464533
352,GRAV,4209131.903812,0.4267289221502,-3.033698834318E-18,-0.9043795812603
353,GRAV,4424960.339484,0.1981097400988,-2.425064059913E-18,-0.9801798461905
354,GRAV,2744910.83874,-0.01544871218298,-1.766633307507E-18,-0.9998806615251
355,GRAV,3806461.095359,-0.01120570659664,-1.778769912023E-18,-0.9999372140988
356,GRAV,5098510.698374,0.1719065060317,-2.34799999776E-18,-0.9851132692153
357,GRAV,4975001.377023,0.339161607088,-2.813250071569E-18,-0.9407281245277
358,GRAV,4836221.576711,0.2521026447503,-2.578233668402E-18,-0.967700499385
359,GRAV,4680205.857321,0.01405182648666,-1.86021569983E-18,-0.9999012682122
360,GRAV,4710206.599333,0.1133433622452,-2.172559925229E-18,-0.9935558777618
361,GRAV,4197266.387276,-0.151591046322,-1.299628760586E-18,-0.9884432986646
362,GRAV,4277605.799563,-0.0393192331602,-1.685271553919E-18,-0.9992266999554
363,GRAV,3358830.830836,-0.2217103413895,-1.047839067666E-18,-0.9751125701789
364,GRAV,3715949.383372,-0.1374426444101,-1.350066615552E-18,-0.990509727109
365,GRAV,2484512.605045,-0.2559289378035,-9.228489047284E-19,-0.9666955977942
366,GRAV,2914959.435678,-0.1751447831987,-1.217602812747E-18,-0.9845426882153
367,GRAV,1872291.127983,0.03547713264093,-1.934830769549E-18,-0.9993704883874
368,GRAV,2282619.084651,-0.07347878242911,-1.573989224237E-18,-0.9972967805687
369,GRAV,1997384.014716,0.5249787065382,-3.262384605623E-18,-0.8511153609714
370,GRAV,2161113.012428,0.3266034596442,-2.784967115533E-18,-0.9451614571852
371,GRAV,2520274.965634,0.6697632462227,-3.536239962401E-18,-0.7425747060123
372,GRAV,3516718.527888,0.6617680434395,-3.521082425444E-18,-0.7497086478641
373,GRAV,3124345.899791,0.5950609105456,-3.401869346269E-18,-0.8036806036857
374,GRAV,4119996.143097,0.6064181679749,-3.422084586495E-18,-0.7951459020519
375,GRAV,4788354.134354,0.4990465591946,-3.200611169845E-18,-0.8665751737478
376,GRAV,4321949.1016,0.5239055037789,-3.255296701853E-18,-0.8517763926701
377,GRAV,4686777.428346,0.4099783024588,-2.992604585153E-18,-0.9120952754581
378,GRAV,3833690.231602,0.362789393787,-2.875341967798E-18,-0.9318711583452
379,GRAV,3967241.313504,0.2209942258437,-2.491288156283E-18,-0.9752751161307
380,GRAV,3287711.316482,0.4230788806782,-3.026078901485E-18,-0.906092854361
381,GRAV,3000759.288006,0.120946331599,-2.197883407656E-18,-0.9926590476456
382,GRAV,2821831.578401,0.310796564503,-2.741109081666E-18,-0.9504764570957
383,GRAV,3590639.41324,0.1010382044708,-2.136002737194E-18,-0.9948825464533
384,GRAV,4209131.903812,0.4267289221502,-3.033698834318E-18,-0.9043795812603
385,GRAV,4424960.339484,0.1981097400988,-2.425064059913E-18,-0.9801798461905
386,GRAV,2744910.83874,-0.01544871218298,-1.766633307507E-18,-0.9998806615251
387,GRAV,3806461.095359,-0.01120570659664,-1.778769912023E-18,-0.9999372140988
388,GRAV,14082028.55953,0.1725287984825,-2.347609582023E-18,-0.9850044739463
389,GRAV,13909721.86669,0.168069808463,-2.334476774417E-18,-0.9857750957917
390,GRAV,13044748.93238,0.2237682153874,-2.49607380663E-18,-0.9746423886649
391,GRAV,12884410.77408,0.2499045610376,-2.56980142576E-18,-0.9682704737689
392,GRAV,13046464.99766,0.2925376691448,-2.68708135367E-18,-0.9562539997989
393,GRAV,13506597.06886,0.2066429103982,-2.447003660976E-18,-0.978416428512
394,GRAV,13868602.85198,0.3057248982604,-2.722527400956E-18,-0.9521198908665
395,GRAV,14343810.55249,0.2818767635942,-2.657973913209E-18,-0.9594506189198
396,GRAV,12920297.55557,0.2266332948798,-2.504232790384E-18,-0.9739801587568
397,GRAV,14285511.26624,0.2888915352732,-2.677076693951E-18,-0.957361833816
398,GRAV,12859345.85996,0.2346287074641,-2.526886308745E-18,-0.9720850629619
399,GRAV,13606470.92552,0.2011152437736,-2.431048937638E-18,-0.9795675876232
400,GRAV,12926371.40745,0.2897702723526,-2.679592687296E-18,-0.9570962277957
401,GRAV,12801869.85338,0.257058231341,-2.589749001859E-18,-0.9663959156059
402,GRAV,14096151.79048,0.3030993221404,-2.715462276865E-18,-0.9529589712669
403,GRAV,13722586.83003,0.2019136352147,-2.433344564287E-18,-0.9794033305612
404,GRAV,12868905.5085,0.2822284473979,-2.659075747203E-18,-0.9593472277957
405,GRAV,12806526.69448,0.2658445363169,-2.614097094269E-18,-0.9640159140338
406,GRAV,13995887.83754,0.3071534593174,-2.726342518535E-18,-0.9516599983342
407,GRAV,14160417.36262,0.2920695276258,-2.685706386571E-18,-0.9563970885738
408,GRAV,14249818.28324,0.2585176424534,-2.593663051337E-18,-0.9660065364895
409,GRAV,14235795.59802,0.269253249825,-2.623362077381E-18,-0.9630694094709
410,GRAV,14237059.49989,0.2625223224792,-2.604769458184E-18,-0.96492591954
411,GRAV,13580509.50537,0.3308569137837,-2.789246501727E-18,-0.9436809326258
412,GRAV,14627635.10187,0.2645190764521,-2.610261220331E-18,-0.9643804530334
413,GRAV,13351617.02752,0.2161254399124,-2.474234461522E-18,-0.9763656047929
414,GRAV,13351617.02752,0.2161254399124,-2.474234461522E-18,-0.9763656047929
415,GRAV,13242512.03017,0.2964686414844,-2.697689230646E-18,-0.9550425878548
416,GRAV,13242512.03017,0.2964686414844,-2.697689230646E-18,-0.9550425878548
417,GRAV,14467735.68431,0.2963335455302,-2.697210883685E-18,-0.9550845144769
418,GRAV,14088956.42726,0.3205049376778,-2.761891358363E-18,-0.9472468447686
419,GRAV,14317965.07533,0.2666469952925,-2.616166653143E-18,-0.9637942622269
420,GRAV,14218809.51802,0.2737625674936,-2.635768092155E-18,-0.9617973053816
421,GRAV,13560297.05897,0.2127350210796,-2.464503274435E-18,-0.9771099276981
422,GRAV,13560297.05897,0.2127350210796,-2.464503274435E-18,-0.9771099276981
423,GRAV,13676005.86082,0.3032265324623,-2.715842639061E-18,-0.9529185012428
424,GRAV,13676005.86082,0.3032265324623,-2.715842639061E-18,-0.9529185012428
425,GRAV,14221432.49697,0.2431220072995,-2.550673187104E-18,-0.969995716262
426,GRAV,13999495.2571,0.2151669031774,-2.471429737325E-18,-0.9765772902218
427,GRAV,13999495.2571,0.2151669031774,-2.471429737325E-18,-0.9765772902218
428,GRAV,14217753.35633,0.2740683160043,-2.636607761559E-18,-0.9617102256723
429,GRAV,13968033.77542,0.207051202267,-2.44813561961E-18,-0.9783301077038
430,GRAV,13876964.0716,0.2990484660426,-2.704585423282E-18,-0.9542379236635
431,GRAV,13352751.1535,0.338276914756,-2.808700442549E-18,-0.9410466135868
432,GRAV,13876964.0716,0.2990484660426,-2.704585423282E-18,-0.9542379236635
433,GRAV,13877496.98662,0.2177132715063,-2.47872415432E-18,-0.9760127721552
434,GRAV,13877496.98662,0.2177132715063,-2.47872415432E-18,-0.9760127721552
435,GRAV,14714287.74321,0.2782636284504,-2.648066554545E-18,-0.9605047387086
436,GRAV,14434470.79062,0.3126427938335,-2.74096859579E-18,-0.9498707719811
437,GRAV,13941821.22448,0.3340599853151,-2.797615463986E-18,-0.9425518161943
438,GRAV,14189661.99689,0.236286129099,-2.531435673041E-18,-0.9716835211093
439,GRAV,13066918.92025,0.1943425317125,-2.411486116596E-18,-0.9809337288357
440,GRAV,12755752.0185,0.2154602547375,-2.472393188973E-18,-0.9765126105834
441,GRAV,13173935.98309,0.325499301413,-2.775182461834E-18,-0.9455422807996
442,GRAV,14321438.14552,0.264476489514,-2.610169434634E-18,-0.9643921331566
443,GRAV,13224243.80436,0.2136086844789,-2.46704102016E-18,-0.9769193057337
444,GRAV,13224243.80436,0.2136086844789,-2.46704102016E-18,-0.9769193057337
445,GRAV,13287749.23935,0.3053756483024,-2.721647196441E-18,-0.9522319640843
446,GRAV,13287749.23935,0.3053756483024,-2.721647196441E-18,-0.9522319640843
447,GRAV,12693593.61985,0.2235269031261,-2.49542466477E-18,-0.9746977601179
448,GRAV,13065887.49166,0.3213822344006,-2.764313253037E-18,-0.94694955484
449,GRAV,13178225.77703,0.1905709041078,-2.400512175921E-18,-0.9816734337383
450,GRAV,14525214.61295,0.2893932473572,-2.678418197539E-18,-0.9572102947545
451,GRAV,13698405.52937,0.3297894733477,-2.786430026592E-18,-0.9440545022768
452,GRAV,12584363.38235,0.2542110810583,-2.581849689113E-18,-0.9671487611878
453,GRAV,12761747.97486,0.3007043882017,-2.709155865468E-18,-0.9537173957291
454,GRAV,14188371.82276,0.3164019694936,-2.750995803625E-18,-0.9486252124525
455,GRAV,12703126.63693,0.2931409551132,-2.688751327918E-18,-0.9560692341223
456,GRAV,12588686.17964,0.2631572271438,-2.606690544444E-18,-0.9647529599861
457,GRAV,13584866.44518,0.3097419361485,-2.733303902802E-18,-0.9508206628965
458,GRAV,13584866.44518,0.3097419361485,-2.733303902802E-18,-0.9508206628965
459,GRAV,14119141.83341,0.2858073898711,-2.668707228182E-18,-0.9582870842785
460,GRAV,14402466.14724,0.268563736712,-2.621447239154E-18,-0.9632619162633
461,GRAV,14008585.42518,0.197843933919,-2.421547318268E-18,-0.9802335322827
462,GRAV,13659692.96586,0.207191792448,-2.448568997957E-18,-0.9783003430144
463,GRAV,13659692.96586,0.207191792448,-2.448568997957E-18,-0.9783003430144
464,GRAV,13065233.65493,0.1836621280364,-2.380372499121E-18,-0.9829894316447
465,GRAV,13063447.61832,0.3319348436862,-2.792128575688E-18,-0.9433023160933
466,GRAV,14248141.75059,0.2652498688991,-2.612313687959E-18,-0.9641797068229
467,GRAV,13651189.54597,0.3393889674195,-2.811573331619E-18,-0.940646123042
468,GRAV,14004100.16878,0.3005400516847,-2.708590134955E-18,-0.9537691950013
469,GRAV,14004100.16878,0.3005400516847,-2.708590134955E-18,-0.9537691950013
470,GRAV,14614062.68497,0.2967847685147,-2.698416617571E-18,-0.9549443969036
471,GRAV,14005240.42333,0.2162001153558,-2.474385986789E-18,-0.9763490718591
472,GRAV,14759647.66446,0.2604409721036,-2.598957552064E-18,-0.9654897721104
473,GRAV,14005240.42333,0.2162001153558,-2.474385986789E-18,-0.9763490718591
474,GRAV,14244540.92797,0.2826691268447,-2.660144822E-18,-0.9592174751999
475,GRAV,12619964.28666,0.3023481004067,-2.713591525736E-18,-0.953197579823
476,GRAV,14213771.49984,0.3258115038162,-2.775907388235E-18,-0.9454347486638
477,GRAV,12815201.04705,0.1966013634612,-2.418065189002E-18,-0.9804835051571
478,GRAV,12499600.89887,0.2358730981492,-2.530439496069E-18,-0.9717838656664
479,GRAV,13357692.78052,0.1775361911915,-2.362398627118E-18,-0.9841142722353
480,GRAV,12816709.30558,0.3189812445825,-2.757977788141E-18,-0.9477610276882
481,GRAV,12508260.0613,0.2812812024799,-2.656529616687E-18,-0.9596253879152
482,GRAV,14286768.1544,0.2363346480686,-2.531564049649E-18,-0.9716717213763
483,GRAV,14127294.22763,0.2136889993023,-2.467185293036E-18,-0.9769017410043
484,GRAV,14127294.22763,0.2136889993023,-2.467185293036E-18,-0.9769017410043
485,GRAV,14149169.85087,0.2312440290385,-2.517188595206E-18,-0.9728957801502
486,GRAV,14248822.13641,0.2344406802153,-2.526220430196E-18,-0.9721304271857
487,GRAV,14119141.83341,0.2858073898711,-2.668707228182E-18,-0.9582870842785
488,GRAV,14489266.48786,0.1942903827093,-2.411201248766E-18,-0.9809440591526
489,GRAV,14119752.84289,0.2311837304867,-2.517020484657E-18,-0.9729101103176
490,GRAV,14244540.92797,0.2826691268447,-2.660144822E-18,-0.9592174751999
491,GRAV,12423596.25079,0.2905884827624,-2.681867807283E-18,-0.9568481246707
492,GRAV,13243484.68742,0.3447003606143,-2.825436677412E-18,-0.9387127683122
493,GRAV,13424406.71529,0.3468894547054,-2.831097919105E-18,-0.9379060220588
494,GRAV,12813203.62652,0.1857159676811,-2.386399354692E-18,-0.9826034700469
495,GRAV,14067759.05214,0.3392747019213,-2.811236730986E-18,-0.9406873426576
496,GRAV,13895224.98878,0.3434904995197,-2.822230419028E-18,-0.9391561514145
497,GRAV,14321289.86009,0.2457767456069,-2.558111553612E-18,-0.9693264627146
498,GRAV,12675374.89701,0.3208109054678,-2.762842411374E-18,-0.9471432642071
499,GRAV,14801820.7849,0.2856529169318,-2.668228745474E-18,-0.9583331419962
500,GRAV,12813915.5503,0.3297477024766,-2.78640973385E-18,-0.9440690931873
501,GRAV,13245935.18107,0.1705939281723,-2.341988399772E-18,-0.9853414188345
502,GRAV,14845403.32745,0.274103671389,-2.63665199895E-18,-0.9617001493871
503,GRAV,14580893.5964,0.3129293170692,-2.74171993088E-18,-0.9497764171207
504,GRAV,14459300.04436,0.3219114853306,-2.765582911182E-18,-0.9467697690633
505,GRAV,14845863.14477,0.2448607097883,-2.555499632042E-18,-0.9695582668422
506,GRAV,14219479.11793,0.2000297756603,-2.427854588731E-18,-0.9797898187108
507,GRAV,14718302.04898,0.2407482582436,-2.543960322436E-18,-0.9705875932406
508,GRAV,14334076.55119,0.2604958313826,-2.599145426928E-18,-0.9654749721418
509,GRAV,14132700.81677,0.192257332127,-2.405326190034E-18,-0.9813445461424
510,GRAV,12614799.42646,0.214059191783,-2.468396778188E-18,-0.9768206910243
511,GRAV,12452963.03527,0.2586567098035,-2.594229148372E-18,-0.9659693092814
512,GRAV,13153125.21173,0.2246818382925,-2.498661900201E-18,-0.9744321790363
513,GRAV,13451120.26075,0.3033968259271,-2.716321651032E-18,-0.9528642956987
514,GRAV,13451120.26075,0.3033968259271,-2.716321651032E-18,-0.9528642956987
515,GRAV,13153125.21173,0.2246818382925,-2.498661900201E-18,-0.9744321790363
516,GRAV,14249968.9268,0.2541476058452,-2.581507832344E-18,-0.9671654431601
517,GRAV,14063069.38272,0.2902616938695,-2.680814792222E-18,-0.9569473073644
518,GRAV,12980632.66595,0.246254387659,-2.559578084937E-18,-0.969205229329
519,GRAV,12980632.66595,0.246254387659,-2.559578084937E-18,-0.969205229329
520,GRAV,13453696.63402,0.2134303571508,-2.466507031763E-18,-0.976958280914
521,GRAV,13153986.19609,0.2919167106639,-2.685388427215E-18,-0.9564437432673
522,GRAV,13153986.19609,0.2919167106639,-2.685388427215E-18,-0.9564437432673
523,GRAV,13453696.63402,0.2134303571508,-2.466507031763E-18,-0.976958280914
524,GRAV,14236398.97482,0.2498228749263,-2.569442200441E-18,-0.9682915527689
525,GRAV,14610879.45785,0.2035528288539,-2.437997878535E-18,-0.9790639641339
526,GRAV,14063069.38272,0.2902616938695,-2.680814792222E-18,-0.9569473073644
527,GRAV,14063679.53894,0.2266560626378,-2.504185656486E-18,-0.9739748606969
528,GRAV,14063679.53894,0.2266560626378,-2.504185656486E-18,-0.9739748606969
529,GRAV,14185340.07606,0.2240715403857,-2.496827449509E-18,-0.9745726985655
530,GRAV,12984954.23728,0.2709460619017,-2.628143844971E-18,-0.9625945312228
531,GRAV,12984954.23728,0.2709460619017,-2.628143844971E-18,-0.9625945312228
532,GRAV,12371456.67206,0.276974427458,-2.644764851196E-18,-0.9608772900502
533,GRAV,12674627.4816,0.1949913078648,-2.413411158421E-18,-0.9808049703469
534,GRAV,13783419.29711,0.2147931677863,-2.470379593834E-18,-0.9766595594537
535,GRAV,13783419.29711,0.2147931677863,-2.470379593834E-18,-0.9766595594537
536,GRAV,13426850.34476,0.1682921194186,-2.335179141837E-18,-0.9857371670692
537,GRAV,12419259.8326,0.2263640286045,-2.503523388424E-18,-0.9740427744991
538,GRAV,12367130.36169,0.240175152111,-2.542577613664E-18,-0.9707295690915
539,GRAV,14801940.7199,0.2331850799809,-2.522625204293E-18,-0.9724323721855
540,GRAV,14233487.0834,0.2471579394317,-2.56198819524E-18,-0.9689752076167
541,GRAV,13782887.88272,0.3019014776284,-2.712272304391E-18,-0.9533391305332
542,GRAV,13782887.88272,0.3019014776284,-2.712272304391E-18,-0.9533391305332
543,GRAV,14319808.74084,0.2282036093131,-2.50855621552E-18,-0.973613430832
544,GRAV,14631090.55333,0.2564575735152,-2.587905272528E-18,-0.9665554888296
545,GRAV,14377749.18149,0.2372036275178,-2.534007059464E-18,-0.9714599523873
546,GRAV,14718302.04898,0.2407482582436,-2.543960322436E-18,-0.9705875932406
547,GRAV,14558914.89309,0.2295691987568,-2.512408553656E-18,-0.973292341993
548,GRAV,14558914.89309,0.2295691987568,-2.512408553656E-18,-0.973292341993
549,GRAV,14191047.63418,0.2249013394537,-2.499187353379E-18,-0.9743815410361
550,GRAV,14314060.1991,0.2273832423939,-2.50622845139E-18,-0.9738053507136
551,GRAV,14219479.11793,0.2000297756603,-2.427854588731E-18,-0.9797898187108
552,GRAV,14229803.6075,0.2700612972968,-2.625588468514E-18,-0.9628431314095
553,GRAV,14132700.81677,0.192257332127,-2.405326190034E-18,-0.9813445461424
554,GRAV,14257266.74565,0.1867620987884,-2.38931198803E-18,-0.9824051702104
555,GRAV,14237486.69455,0.250129776371,-2.570299649634E-18,-0.9682123191597
556,GRAV,14234562.38442,0.2474653231924,-2.562848625339E-18,-0.9688967508549
557,GRAV,14418305.12258,0.2564260536233,-2.587835528901E-18,-0.9665638514983
558,GRAV,14418305.12258,0.2564260536233,-2.587835528901E-18,-0.9665638514983
559,GRAV,14643870.66541,0.221967582826,-2.490797375158E-18,-0.975054045771
560,GRAV,13956323.94924,0.1779805177197,-2.363645495707E-18,-0.9840340112579
561,GRAV,14465062.88294,0.2038623448816,-2.438903067709E-18,-0.9789995629924
562,GRAV,14230878.58078,0.269755748484,-2.624746858308E-18,-0.9629287804193
563,GRAV,14631090.55333,0.2564575735152,-2.587905272528E-18,-0.9665554888296
564,GRAV,13956323.94924,0.1779805177197,-2.363645495707E-18,-0.9840340112579
565,GRAV,14465062.88294,0.2038623448816,-2.438903067709E-18,-0.9789995629924
566,GRAV,14502013.12505,0.2206353129822,-2.487011237346E-18,-0.9753563752113
567,GRAV,14502013.12505,0.2206353129822,-2.487011237346E-18,-0.9753563752113
568,GRAV,13667924.13799,0.1725129497475,-2.347601141819E-18,-0.9850072498055
569,GRAV,13715169.25919,0.1825747342004,-2.377128076174E-18,-0.9831919784211
570,GRAV,13599296.51178,0.1816075342981,-2.374308737602E-18,-0.9833710914432
571,GRAV,13647834.4599,0.1916702746814,-2.403663982914E-18,-0.9814593755238
572,GRAV,13715169.25919,0.1825747342004,-2.377128076174E-18,-0.9831919784211
573,GRAV,13763838.17446,0.192547516213,-2.406203349571E-18,-0.9812876509975
574,GRAV,13529148.8082,0.3158730519311,-2.749650802729E-18,-0.948801462406
575,GRAV,13737902.58229,0.3084170222813,-2.729747564103E-18,-0.9512512498637
576,GRAV,13647273.39226,0.3149257645263,-2.747119784084E-18,-0.9491163062752
577,GRAV,13303516.0245,0.312710278311,-2.741253126006E-18,-0.9498485573178
578,GRAV,13196249.63793,0.3085106350201,-2.730051017511E-18,-0.9512208934204
579,GRAV,13150607.87907,0.2995616556198,-2.706038512045E-18,-0.9540769436908
580,GRAV,13131831.44484,0.2101123730957,-2.45701902977E-18,-0.9776772425868
581,GRAV,13242314.786,0.2062395138858,-2.445868275375E-18,-0.9785015395553
582,GRAV,13369427.51224,0.208827142596,-2.45330150735E-18,-0.9779525676203
583,GRAV,12960162.43508,0.2338360299751,-2.524635917579E-18,-0.9722760467509
584,GRAV,13084329.04292,0.2309161978937,-2.516362497248E-18,-0.9729736427829
585,GRAV,12960162.43508,0.2338360299751,-2.524635917579E-18,-0.9722760467509
586,GRAV,13084329.04292,0.2309161978937,-2.516362497248E-18,-0.9729736427829
587,GRAV,12965534.92678,0.2542784206098,-2.581995767449E-18,-0.9671310587569
588,GRAV,12883423.2878,0.261406356987,-2.601809166109E-18,-0.9652288415328
589,GRAV,12883423.2878,0.261406356987,-2.601809166109E-18,-0.9652288415328
590,GRAV,12965534.92678,0.2542784206098,-2.581995767449E-18,-0.9671310587569
591,GRAV,12965389.31419,0.2829583802919,-2.66105690346E-18,-0.959132188503
592,GRAV,13085213.88105,0.2857859177479,-2.668748221302E-18,-0.9582934880385
593,GRAV,13085213.88105,0.2857859177479,-2.668748221302E-18,-0.9582934880385
594,GRAV,12965389.31419,0.2829583802919,-2.66105690346E-18,-0.959132188503
595,GRAV,14330470.46848,0.2626658962177,-2.605158865012E-18,-0.9648868467153
596,GRAV,14249818.28324,0.2585176424534,-2.593663051337E-18,-0.9660065364895
597,GRAV,14289242.87581,0.2389991643027,-2.539074140186E-18,-0.9710197729514
598,GRAV,14386350.63604,0.2390290081322,-2.539149786556E-18,-0.9710124269397
599,GRAV,14334593.14127,0.2500843480525,-2.570164271676E-18,-0.9682240540594
600,GRAV,14249968.9268,0.2541476058452,-2.581507832344E-18,-0.9671654431601
601,GRAV,14248862.47892,0.2538416135998,-2.5806553818E-18,-0.9672457987529
602,GRAV,14333505.62844,0.2497795187469,-2.569312584158E-18,-0.9683027377915
603,GRAV,10414402.86301,0.2750026551977,-2.639628633765E-18,-0.9614434666865
604,GRAV,5732287.785696,0.2735025842213,-2.636904017157E-18,-0.9618712681145
605,GRAV,5732287.785696,0.2735025842213,-2.636904017157E-18,-0.9618712681145
606,GRAV,5737770.395965,0.3030943545973,-2.717285081462E-18,-0.9529605512356
607,GRAV,8076628.526841,0.2902646435383,-2.681759248844E-18,-0.9569464126646
608,GRAV,10416289.68743,0.2338416828309,-2.524986705388E-18,-0.9722746872005
609,GRAV,8072247.629576,0.2585926941252,-2.594825679316E-18,-0.9659864484272
610,GRAV,10413270.61336,0.2503587103673,-2.571397515981E-18,-0.9681531470502
611,GRAV,8076628.538593,0.2266402144501,-2.505077153174E-18,-0.9739785486313
612,GRAV,5734344.38918,0.2285980742984,-2.511532949514E-18,-0.9735208885417
613,GRAV,10413270.61336,0.2503587103673,-2.571397515981E-18,-0.9681531470502
614,GRAV,8072247.629576,0.2585926941252,-2.594825679316E-18,-0.9659864484272
615,GRAV,2127864.274116,0.357882324979,-2.866484367636E-18,-0.9337666954157
616,GRAV,2007577.405304,0.5073741258706,-3.224131882799E-18,-0.8617258823994
617,GRAV,2129303.680421,0.03102896059918,-1.919444751088E-18,-0.9995184858741
618,GRAV,2005835.047875,-0.07800986456098,-1.559661067148E-18,-0.9969525871531
619,GRAV,4845312.395263,0.1392210878418,-2.250894251735E-18,-0.9902613234395
620,GRAV,2020554.484739,0.1428693465624,-2.266979034996E-18,-0.9897415570808
621,GRAV,2149465.165418,0.5934501524497,-3.401349850712E-18,-0.8048707452488
622,GRAV,1749720.14261,-0.08939412543887,-1.522094138361E-18,-0.9959963304837
623,GRAV,2360043.480248,-0.08922549786272,-1.520045496199E-18,-0.996011451004
624,GRAV,3850812.76709,-0.03034575631576,-1.715566965447E-18,-0.999539461489
625,GRAV,2704245.633984,-0.04311257929277,-1.675032108675E-18,-0.9990702205084
626,GRAV,4637205.8774,0.4236018605649,-3.025769476688E-18,-0.9058484772444
627,GRAV,3783927.758184,-0.1236579351944,-1.398229053605E-18,-0.9923249039823
628,GRAV,2361221.60503,0.5402035153668,-3.293323702184E-18,-0.84153440927
629,GRAV,1766574.86792,0.1634436913355,-2.329576103594E-18,-0.9865526644648
630,GRAV,3092250.137011,0.1589189819781,-2.311844176037E-18,-0.9872916272141
631,GRAV,3532437.151367,0.1390861100232,-2.251851215847E-18,-0.9902802906241
632,GRAV,2853526.014304,0.1271989788237,-2.217167418974E-18,-0.9918772201166
633,GRAV,3738290.164144,0.09703821162014,-2.123481433428E-18,-0.9952806566419
634,GRAV,3822675.295013,0.2293608853272,-2.515245584322E-18,-0.973341453079
635,GRAV,3505880.99022,0.06683208699046,-2.029770609495E-18,-0.9977642367556
636,GRAV,4069480.296435,0.2470152858566,-2.564706536905E-18,-0.9690115832915
637,GRAV,3061878.540875,0.07655746029685,-2.060960840211E-18,-0.9970651710259
638,GRAV,4013670.082865,0.1864169760583,-2.391485553129E-18,-0.9824707176488
639,GRAV,5014141.9694,0.1748030347578,-2.356583006157E-18,-0.984603422216
640,GRAV,4144234.9425,-0.1356260616244,-1.355950974084E-18,-0.9907600978079
641,GRAV,2834569.490802,-0.1649943515229,-1.254055403741E-18,-0.9862945117791
642,GRAV,2508315.167183,-0.2239260091836,-1.041488891714E-18,-0.9746061473288
643,GRAV,4714394.747923,0.4911404564008,-3.183040004661E-18,-0.871080393584
644,GRAV,4815318.321514,0.2354060468581,-2.531389532964E-18,-0.9718971103479
645,GRAV,4205393.316524,-0.05017590036451,-1.649051189807E-18,-0.9987403962105
646,GRAV,1615619.64577,0.04096912115844,-1.953871175198E-18,-0.9991604131027
647,GRAV,4956766.514668,0.1101596680516,-2.162636361008E-18,-0.993913903482
648,GRAV,3896557.862463,0.01505754823879,-1.864233036514E-18,-0.999886628694
649,GRAV,2303902.063535,-0.01520272051816,-1.768681519586E-18,-0.9998844319664
650,GRAV,4608886.847037,0.3881150962317,-2.938588190755E-18,-0.9216109114355
651,GRAV,3674173.559016,-0.0189917649858,-1.753329348879E-18,-0.9998196401665
652,GRAV,2655391.485002,0.02220518945715,-1.889436580153E-18,-0.9997534343833
653,GRAV,2878123.246733,-0.02417981207407,-1.737542224498E-18,-0.9997076256026
654,GRAV,3604011.88313,-0.1167687349683,-1.422444502136E-18,-0.9931591325331
655,GRAV,2216758.491982,0.2797497861373,-2.658939684563E-18,-0.9600729436642
656,GRAV,1872438.942148,0.03531773294173,-1.934320331027E-18,-0.9993761342657
657,GRAV,4829016.067423,0.3340572584148,-2.800013251389E-18,-0.9425527826601
658,GRAV,3329112.7021,-0.179118034469,-1.202590139187E-18,-0.9838275914651
659,GRAV,4701415.330883,0.1161556539757,-2.181151571918E-18,-0.9932310224965
660,GRAV,4279820.076828,0.4370136953735,-3.058257347812E-18,-0.899454851594
661,GRAV,3618306.828039,0.6755289176893,-3.5434158097E-18,-0.7373334939941
662,GRAV,4816239.91755,0.4176128259827,-3.011120428189E-18,-0.908625075361
663,GRAV,2190277.375781,-0.1175972424502,-1.422747226265E-18,-0.9930613720048
664,GRAV,3000905.392152,-0.1401888346735,-1.341551652908E-18,-0.9901247853846
665,GRAV,4971383.793947,0.2538586423763,-2.583029858159E-18,-0.9672413296023
666,GRAV,4723262.148763,0.2672070529683,-2.620233289597E-18,-0.9636391393276
667,GRAV,4247321.173988,-0.008353727152483,-1.787638199172E-18,-0.9999651070126
668,GRAV,3763225.185858,-0.1709812981022,-1.231133609302E-18,-0.9852742743517
669,GRAV,3972317.050199,0.350119935127,-2.842609090144E-18,-0.9367048793652
670,GRAV,2713161.178135,0.2758881965091,-2.646900156077E-18,-0.9611897331053
671,GRAV,3719069.678742,0.3394224492233,-2.815136552478E-18,-0.9406340419968
672,GRAV,2963215.107628,0.2959558321452,-2.700958930472E-18,-0.9552016255321
673,GRAV,1872438.942148,0.03531773294173,-1.934320331027E-18,-0.9993761342657
674,GRAV,3500850.400832,-0.2339172626331,-1.002637594523E-18,-0.9722565064026
675,GRAV,5027297.997338,0.3651490064278,-2.880268273173E-18,-0.9309490872786
676,GRAV,5071966.845339,0.3180438080549,-2.757607347387E-18,-0.9480760181325
677,GRAV,4363335.808744,0.5091152813671,-3.223172108032E-18,-0.8606983387218
678,GRAV,4249119.851148,0.3988566035671,-2.965624905624E-18,-0.917013309495
679,GRAV,5164202.356465,0.1946013834898,-2.414318276878E-18,-0.9808824096414
680,GRAV,5120338.233899,0.1460749837323,-2.271263909451E-18,-0.9892735208867
681,GRAV,4125340.928815,-0.1787960583749,-1.202716277316E-18,-0.9838861567832
682,GRAV,4890603.892492,0.4830537424765,-3.164694958429E-18,-0.8755907045415
683,GRAV,2349288.133057,-0.259087645184,-9.114335323831E-19,-0.9658538150844
684,GRAV,2914581.176969,-0.2206966940547,-1.052367891391E-18,-0.9753424881719
685,GRAV,4762931.549844,0.5229931266931,-3.252955130256E-18,-0.8523368990205
686,GRAV,4383229.323311,-0.0588803738305,-1.619627714641E-18,-0.9982650457557
687,GRAV,3251513.747131,-0.2518362792925,-9.36456187187E-19,-0.9677698530292
688,GRAV,4680438.238061,-0.01765175857839,-1.756704832851E-18,-0.999844195572
689,GRAV,3571466.687356,0.622059750509,-3.451716847688E-18,-0.7829697738717
690,GRAV,3367859.789024,0.6876234142024,-3.562829455054E-18,-0.7260675176873
691,GRAV,4415733.063617,0.5428297813214,-3.295325511484E-18,-0.8398427403452
692,GRAV,4324586.640675,-0.1408557856296,-1.337392617402E-18,-0.9900301246198
693,GRAV,2598392.621772,-0.2837244357586,-8.177697342617E-19,-0.9589058580244
694,GRAV,3814028.482136,0.3983565789494,-2.964864511809E-18,-0.9172306340325
695,GRAV,2795060.988159,0.3597548488217,-2.869295331915E-18,-0.9330468631046
696,GRAV,3303842.907407,0.3821126113081,-2.925068425034E-18,-0.9241157677906
697,GRAV,3286494.38943,0.5691805879389,-3.350732113225E-18,-0.8222125384069
698,GRAV,3064008.915031,0.6412391195702,-3.486798148436E-18,-0.7673411181038
699,GRAV,3030426.776472,0.5748883865568,-3.362597904599E-18,-0.8182318393964
700,GRAV,4065147.097753,0.6328583600478,-3.470576808171E-18,-0.7742675868959
701,GRAV,4267204.331596,0.6028776471009,-3.415254617597E-18,-0.7978336559873
702,GRAV,4701415.330883,0.1161556539757,-2.181151571918E-18,-0.9932310224965
703,GRAV,4188599.946821,0.5191344221182,-3.245146360944E-18,-0.8546926065973
704,GRAV,4101527.767145,0.4445527534456,-3.07632411915E-18,-0.8957526720049
705,GRAV,4031712.27061,0.5828930610558,-3.376960071134E-18,-0.8125488781439
706,GRAV,2464306.555369,0.4132896501473,-3.004115872031E-18,-0.910599618428
707,GRAV,3410382.961491,0.4455357820006,-3.079523733315E-18,-0.895264132509
708,GRAV,3153902.362198,0.4410396490433,-3.069308620216E-18,-0.8974876199546
709,GRAV,2375370.076433,0.6793997972767,-3.552155149812E-18,-0.7337682982116
710,GRAV,1790895.275185,0.5687954308406,-3.354473231584E-18,-0.8224790318634
711,GRAV,2621997.779379,0.7003709016261,-3.583657112593E-18,-0.7137790975893
712,GRAV,2569855.105193,0.62795981245,-3.464345943151E-18,-0.7782457670606
713,GRAV,4673579.861612,0.04172755553301,-1.949092440196E-18,-0.999129026257
714,GRAV,4930372.895668,0.03954200804561,-1.941926794986E-18,-0.9992179089667
715,GRAV,4416811.78844,0.04416698991543,-1.957080249852E-18,-0.9990241623714
716,GRAV,4673579.861612,0.04172755553301,-1.949092440196E-18,-0.999129026257
717,GRAV,4635757.412749,0.2009676946238,-2.433149419934E-18,-0.9795978693921
718,GRAV,4485142.215764,0.1790720898483,-2.369535584237E-18,-0.9838359551457
719,GRAV,4538273.178784,0.233606781048,-2.526532081431E-18,-0.9723311533878
720,GRAV,4384310.36208,0.2125072409651,-2.466592350501E-18,-0.9771594918627
721,GRAV,4485142.215764,0.1790720898483,-2.369535584237E-18,-0.9838359551457
722,GRAV,4336912.209275,0.1555692315304,-2.300235102781E-18,-0.9878249916868
723,GRAV,2007577.405304,0.5073741258706,-3.224131882799E-18,-0.8617258823994
724,GRAV,2127864.274116,0.357882324979,-2.866484367636E-18,-0.9337666954157
725,GRAV,1658185.226907,0.4593247113239,-3.117336638527E-18,-0.8882684332831
726,GRAV,1801948.272704,0.2800178233971,-2.661517532176E-18,-0.9599948013296

***********************************************************
** MbDAssembly gravity
*DLOAD
Eall,GRAV,9810,0,0,-1

***********************************************************
** Outputs --> frd file
*NODE FILE
U
*EL FILE
S, E
*OUTPUT, FREQUENCY=1
***********************************************************
*END STEP

***********************************************************
** CalculiX Input file
**   written by    --> FreeCAD 26.3.0
**   written on    --> Sat Sep  5 11:50:07 2026
**   file name     --> RealisticPendulum.FCStd
**   analysis name --> FEMPart002
**
**
***********************************************************
**  About units:
**  See ccx manual, ccx does not know about any unit.
**  Golden rule: The user must make sure that the numbers they provide have consistent units.
**  The user is the FreeCAD calculix writer module ;-)
**
**  The unit system which is used at Guido Dhondt's company: mm, N, s, K
**  Since Length and Mass are connected by Force, if Length is mm the Mass is in t to get N
**  The following units are used to write to inp file:
**
**  Length: mm (this includes the mesh geometry)
**  Mass: t
**  TimeSpan: s
**  Temperature: K
**
**  This leads to:
**  Force: N
**  Pressure: N/mm^2 == MPa (Young's Modulus has unit Pressure)
**  Density: t/mm^3
**  Gravity: mm/s^2
**  Thermal conductivity: t*mm/K/s^3 == as W/m/K == kW/mm/K
**  Specific Heat: mm^2/s^2/K = J/kg/K == kJ/t/K
**
