** written by FreeCAD inp file writer for CalculiX,Abaqus meshes
** highest dimension mesh elements only.

** Nodes
*Node, NSET=Nall
1, -5e-15, 5, 212
2, -5e-15, -5, 212
3, -2e-15, 5, 200
4, -2e-15, -5, 200
5, -5, -3, 180
6, -5, -3, 48
7, -5, 3, 180
8, -5, 3, 48
9, 5, -3, 180
10, 5, -3, 48
11, 5, 3, 180
12, 5, 3, 48
13, -7e-15, 5, 76
14, -7e-15, -5, 76
15, 10, 5, 209.3205080757
16, 17.32050807569, 5, 202
17, 20, 5, 192
18, 17.32050807569, 5, 182
19, 10, 5, 174.6794919243
20, -1.130139009627e-13, 5, 172
21, -10, 5, 174.6794919243
22, -17.32050807569, 5, 182
23, -20, 5, 192
24, -17.32050807569, 5, 202
25, -10, 5, 209.3205080757
26, 5.17638090205, 5, 211.3185165258
27, 14.14213562373, 5, 206.1421356237
28, 19.31851652578, 5, 197.1763809021
29, 19.31851652578, 5, 186.8236190979
30, 14.14213562373, 5, 177.8578643763
31, 5.17638090205, 5, 172.6814834742
32, -5.176380902051, 5, 172.6814834742
33, -14.14213562373, 5, 177.8578643763
34, -19.31851652578, 5, 186.8236190979
35, -19.31851652578, 5, 197.1763809021
36, -14.14213562373, 5, 206.1421356237
37, -5.17638090205, 5, 211.3185165258
38, -4.9e-15, 0, 212
39, 10, -5, 209.3205080757
40, 17.32050807569, -5, 202
41, 20, -5, 192
42, 17.32050807569, -5, 182
43, 10, -5, 174.6794919243
44, -1.130139009627e-13, -5, 172
45, -10, -5, 174.6794919243
46, -17.32050807569, -5, 182
47, -20, -5, 192
48, -17.32050807569, -5, 202
49, -10, -5, 209.3205080757
50, 5.17638090205, -5, 211.3185165258
51, 14.14213562373, -5, 206.1421356237
52, 19.31851652578, -5, 197.1763809021
53, 19.31851652578, -5, 186.8236190979
54, 14.14213562373, -5, 177.8578643763
55, 5.17638090205, -5, 172.6814834742
56, -5.176380902051, -5, 172.6814834742
57, -14.14213562373, -5, 177.8578643763
58, -19.31851652578, -5, 186.8236190979
59, -19.31851652578, -5, 197.1763809021
60, -14.14213562373, -5, 206.1421356237
61, -5.17638090205, -5, 211.3185165258
62, 4, 5, 198.9282032303
63, 6.928203230276, 5, 196
64, 8, 5, 192
65, 6.928203230275, 5, 188
66, 4, 5, 185.0717967697
67, -4.520556038509e-14, 5, 184
68, -4, 5, 185.0717967697
69, -6.928203230276, 5, 188
70, -8, 5, 192
71, -6.928203230275, 5, 196
72, -4, 5, 198.9282032303
73, 2.07055236082, 5, 199.7274066103
74, 5.656854249492, 5, 197.6568542495
75, 7.727406610313, 5, 194.0705523608
76, 7.727406610313, 5, 189.9294476392
77, 5.656854249492, 5, 186.3431457505
78, 2.07055236082, 5, 184.2725933897
79, -2.07055236082, 5, 184.2725933897
80, -5.656854249492, 5, 186.3431457505
81, -7.727406610313, 5, 189.9294476392
82, -7.727406610313, 5, 194.0705523608
83, -5.656854249492, 5, 197.6568542495
84, -2.07055236082, 5, 199.7274066103
85, 4, -5, 198.9282032303
86, 6.928203230276, -5, 196
87, 8, -5, 192
88, 6.928203230275, -5, 188
89, 4, -5, 185.0717967697
90, -4.520556038509e-14, -5, 184
91, -4, -5, 185.0717967697
92, -6.928203230276, -5, 188
93, -8, -5, 192
94, -6.928203230275, -5, 196
95, -4, -5, 198.9282032303
96, 2.07055236082, -5, 199.7274066103
97, 5.656854249492, -5, 197.6568542495
98, 7.727406610313, -5, 194.0705523608
99, 7.727406610313, -5, 189.9294476392
100, 5.656854249492, -5, 186.3431457505
101, 2.07055236082, -5, 184.2725933897
102, -2.07055236082, -5, 184.2725933897
103, -5.656854249492, -5, 186.3431457505
104, -7.727406610313, -5, 189.9294476392
105, -7.727406610313, -5, 194.0705523608
106, -5.656854249492, -5, 197.6568542495
107, -2.07055236082, -5, 199.7274066103
108, -1.96e-15, -1.666666666667, 200
109, -1.96e-15, 1.666666666667, 200
110, -1.96e-15, -3.333333333333, 200
111, -1.96e-15, 8.881784197001e-16, 200
112, -1.96e-15, 3.333333333333, 200
113, -5, -3, 114
114, -5, 0, 180
115, -5, 3, 114
116, -5, 0, 48
117, 5, -3, 114
118, 5, 0, 180
119, 5, 3, 114
120, 5, 0, 48
121, 0, -3, 48
122, 0, -3, 180
123, 0, 3, 48
124, 0, 3, 180
125, 14, 5, 72.24871130596
126, 24.24871130596, 5, 62
127, 28, 5, 48
128, 24.24871130596, 5, 34
129, 14, 5, 23.75128869404
130, -1.706539592236e-13, 5, 20
131, -14, 5, 23.75128869404
132, -24.24871130596, 5, 34
133, -28, 5, 48
134, -24.24871130596, 5, 62
135, -14, 5, 72.24871130596
136, 7.246933262871, 5, 75.04592313609
137, 19.79898987322, 5, 67.79898987322
138, 27.04592313609, 5, 55.24693326287
139, 27.04592313609, 5, 40.75306673713
140, 19.79898987322, 5, 28.20101012678
141, 7.24693326287, 5, 20.95407686391
142, -7.246933262871, 5, 20.95407686391
143, -19.79898987322, 5, 28.20101012678
144, -27.04592313609, 5, 40.75306673713
145, -27.04592313609, 5, 55.24693326287
146, -19.79898987322, 5, 67.79898987322
147, -7.24693326287, 5, 75.04592313609
148, -6.86e-15, 0, 76
149, 14, -5, 72.24871130596
150, 24.24871130596, -5, 62
151, 28, -5, 48
152, 24.24871130596, -5, 34
153, 14, -5, 23.75128869404
154, -1.706539592236e-13, -5, 20
155, -14, -5, 23.75128869404
156, -24.24871130596, -5, 34
157, -28, -5, 48
158, -24.24871130596, -5, 62
159, -14, -5, 72.24871130596
160, 7.246933262871, -5, 75.04592313609
161, 19.79898987322, -5, 67.79898987322
162, 27.04592313609, -5, 55.24693326287
163, 27.04592313609, -5, 40.75306673713
164, 19.79898987322, -5, 28.20101012678
165, 7.24693326287, -5, 20.95407686391
166, -7.246933262871, -5, 20.95407686391
167, -19.79898987322, -5, 28.20101012678
168, -27.04592313609, -5, 40.75306673713
169, -27.04592313609, -5, 55.24693326287
170, -19.79898987322, -5, 67.79898987322
171, -7.24693326287, -5, 75.04592313609
172, 5.17638090205, 0, 211.3185165258
173, -5.17638090205, 0, 211.3185165258
174, 10, 0, 209.3205080757
175, -10, 0, 209.3205080757
176, 14.14213562373, 0, 206.1421356237
177, 19.31851652578, 0, 197.1763809021
178, 20, 0, 192
179, 17.32050807569, 0, 202
180, 19.31851652578, 0, 186.8236190979
181, 17.32050807569, 0, 182
182, 14.14213562373, 0, 177.8578643763
183, 10, 0, 174.6794919243
184, 5.17638090205, 0, 172.6814834742
185, -5.176380902051, 0, 172.6814834742
186, -1.130139009627e-13, 0, 172
187, -14.14213562373, 0, 177.8578643763
188, -17.32050807569, 0, 182
189, -10, 0, 174.6794919243
190, -19.31851652578, 0, 186.8236190979
191, -19.31851652578, 0, 197.1763809021
192, -17.32050807569, 0, 202
193, -20, 0, 192
194, -14.14213562373, 0, 206.1421356237
195, 3.416237101988, 5, 204.7495704353
196, 9.333333333333, 5, 182.6666666667
197, -3.472079033996, 5, 204.5411655079
198, -9.286798389993, 5, 201.0901942513
199, -12.74957043532, 5, 188.583762898
200, -12.38084668855, 5, 195.2789928582
201, -9.124928405887, 5, 182.7225085987
202, 3.26367410655, 5, 179.4029925601
203, 12.59700743988, 5, 188.7363258935
204, -3.31020904989, 5, 179.6461316421
205, 9.277491401325, 5, 201.1249284059
206, 12.35386835786, 5, 195.3102090499
207, 6.708118550994, 5, 207.0350392555
208, 1.708118550994, 5, 208.3747852177
209, -1.736039516998, 5, 208.2705827539
210, -6.736039516998, 5, 206.9308367918
211, -0.02792096600395, 5, 204.6453679716
212, 1.708118550994, 5, 202.3747852177
213, 3.708118550994, 5, 201.8388868328
214, -3.736039516998, 5, 201.7346843691
215, -1.736039516998, 5, 202.2705827539
216, 13.29899973851, 5, 201.5624642029
217, 9.638745700663, 5, 205.2227182408
218, 6.346864251657, 5, 202.9372494206
219, 16.17693417893, 5, 193.6551045249
220, 14.83718821678, 5, 198.6551045249
221, 10.81567987959, 5, 198.2175687279
222, 14.95875775779, 5, 185.3681629467
223, 16.29850371994, 5, 190.3681629467
224, 12.47543789887, 5, 192.0232674717
225, 9.666666666667, 5, 178.6730792955
226, 13.32692070451, 5, 182.3333333333
227, 10.96517038661, 5, 185.7014962801
228, 1.631837053275, 5, 175.7014962801
229, 6.631837053275, 5, 177.0412422422
230, 6.298503719941, 5, 181.0348296134
231, -6.655104524945, 5, 177.1628117832
232, -1.655104524945, 5, 175.8230658211
233, -0.02326747167005, 5, 179.5245621011
234, -13.22271824079, 5, 182.3612542993
235, -9.562464202944, 5, 178.7010002615
236, -6.217568727888, 5, 181.1843201204
237, -16.37478521766, 5, 190.291881449
238, -15.03503925551, 5, 185.291881449
239, -10.9372494206, 5, 185.6531357483
240, -14.85067738212, 5, 198.6394964291
241, -16.19042334427, 5, 193.6394964291
242, -12.56520856193, 5, 191.9313778781
243, -9.643399194997, 5, 205.2053511635
244, -13.30365323284, 5, 201.5450971257
245, -10.83382253927, 5, 198.1845935548
246, -6.379438711995, 5, 202.8156798796
247, 6.638745700663, 5, 200.0265658181
248, 8.1028473158, 5, 198.5624642029
249, 9.641035794069, 5, 195.6551045249
250, 10.17693417893, 5, 193.6551045249
251, 10.29850371994, 5, 190.3681629467
252, 9.762605335079, 5, 188.3681629467
253, 8.130768281804, 5, 185.3333333333
254, 6.666666666667, 5, 183.8692317182
255, 3.631837053275, 5, 182.2373946649
256, 1.631837053275, 5, 181.7014962801
257, -1.655104524945, 5, 181.8230658211
258, -3.655104524945, 5, 182.3589642059
259, -6.562464202943, 5, 183.8971526842
260, -8.026565818081, 5, 185.3612542993
261, -9.838886832798, 5, 188.291881449
262, -10.37478521766, 5, 190.291881449
263, -10.19042334427, 5, 193.6394964291
264, -9.654524959411, 5, 195.6394964291
265, -8.107500810134, 5, 198.5450971257
266, -6.643399194997, 5, 200.0091987408
267, 3.416237101988, -5, 204.7495704353
268, 9.333333333333, -5, 182.6666666667
269, -3.472079033996, -5, 204.5411655079
270, -9.286798389993, -5, 201.0901942513
271, -12.74957043532, -5, 188.583762898
272, -12.38084668855, -5, 195.2789928582
273, -9.124928405887, -5, 182.7225085987
274, 3.26367410655, -5, 179.4029925601
275, 12.59700743988, -5, 188.7363258935
276, -3.31020904989, -5, 179.6461316421
277, 9.277491401325, -5, 201.1249284059
278, 12.35386835786, -5, 195.3102090499
279, 1.708118550994, -5, 208.3747852177
280, 6.708118550994, -5, 207.0350392555
281, -6.736039516998, -5, 206.9308367918
282, -1.736039516998, -5, 208.2705827539
283, -0.02792096600395, -5, 204.6453679716
284, 3.708118550994, -5, 201.8388868328
285, 1.708118550994, -5, 202.3747852177
286, -1.736039516998, -5, 202.2705827539
287, -3.736039516998, -5, 201.7346843691
288, 9.638745700663, -5, 205.2227182408
289, 13.29899973851, -5, 201.5624642029
290, 6.346864251657, -5, 202.9372494206
291, 14.83718821678, -5, 198.6551045249
292, 16.17693417893, -5, 193.6551045249
293, 10.81567987959, -5, 198.2175687279
294, 16.29850371994, -5, 190.3681629467
295, 14.95875775779, -5, 185.3681629467
296, 12.47543789887, -5, 192.0232674717
297, 13.32692070451, -5, 182.3333333333
298, 9.666666666667, -5, 178.6730792955
299, 10.96517038661, -5, 185.7014962801
300, 6.631837053275, -5, 177.0412422422
301, 1.631837053275, -5, 175.7014962801
302, 6.298503719941, -5, 181.0348296134
303, -1.655104524945, -5, 175.8230658211
304, -6.655104524945, -5, 177.1628117832
305, -0.02326747167005, -5, 179.5245621011
306, -9.562464202944, -5, 178.7010002615
307, -13.22271824079, -5, 182.3612542993
308, -6.217568727888, -5, 181.1843201204
309, -15.03503925551, -5, 185.291881449
310, -16.37478521766, -5, 190.291881449
311, -10.9372494206, -5, 185.6531357483
312, -16.19042334427, -5, 193.6394964291
313, -14.85067738212, -5, 198.6394964291
314, -12.56520856193, -5, 191.9313778781
315, -13.30365323284, -5, 201.5450971257
316, -9.643399194997, -5, 205.2053511635
317, -10.83382253927, -5, 198.1845935548
318, -6.379438711995, -5, 202.8156798796
319, 8.1028473158, -5, 198.5624642029
320, 6.638745700663, -5, 200.0265658181
321, 10.17693417893, -5, 193.6551045249
322, 9.641035794069, -5, 195.6551045249
323, 9.762605335079, -5, 188.3681629467
324, 10.29850371994, -5, 190.3681629467
325, 6.666666666667, -5, 183.8692317182
326, 8.130768281804, -5, 185.3333333333
327, 1.631837053275, -5, 181.7014962801
328, 3.631837053275, -5, 182.2373946649
329, -3.655104524945, -5, 182.3589642059
330, -1.655104524945, -5, 181.8230658211
331, -8.026565818081, -5, 185.3612542993
332, -6.562464202943, -5, 183.8971526842
333, -10.37478521766, -5, 190.291881449
334, -9.838886832798, -5, 188.291881449
335, -9.654524959411, -5, 195.6394964291
336, -10.19042334427, -5, 193.6394964291
337, -6.643399194997, -5, 200.0091987408
338, -8.107500810134, -5, 198.5450971257
339, -7.751173309934, 0.0004090689846006, 193.9797253141
340, -5.900629000126, 0.008584387974766, 197.4020900958
341, 5.900629000126, 0.008584387974766, 197.4020900958
342, 7.751173309934, 0.0004090689846006, 193.9797253141
343, -7.727406610313, 0, 189.9294476392
344, -5.656854249492, 0, 186.3431457505
345, -2.07055236082, 3.333333333333, 199.7274066103
346, -3.330387815149, 0.3820363689807, 199.2738240975
347, 3.330387815149, 0.3820363689807, 199.2738240975
348, 2.07055236082, 3.333333333333, 199.7274066103
349, 1.816621978181, -2.083765626184, 199.7910130656
350, -1.816621978181, -2.083765626184, 199.7910130656
351, -2.07055236082, 0, 184.2725933897
352, 2.07055236082, 0, 184.2725933897
353, 5.656854249492, -8.881784197001e-16, 186.3431457505
354, 7.727406610313, 0, 189.9294476392
355, 1.04420953776, 4.166666666667, 199.931558891
356, 3.061467458921, 4.166666666667, 199.3910362601
357, -1.04420953776, 4.166666666667, 199.931558891
358, -3.061467458921, 4.166666666667, 199.3910362601
359, -1.04420953776, 2.5, 199.931558891
360, 1.04420953776, 2.5, 199.931558891
361, 0.914301775996, -3.541882813092, 199.9475815354
362, 2.940133162333, -3.541882813092, 199.440135549
363, -0.914301775996, -3.541882813092, 199.9475815354
364, -2.940133162333, -3.541882813092, 199.440135549
365, 0.914301775996, -1.875216146425, 199.9475815354
366, -0.914301775996, -1.875216146425, 199.9475815354
367, 5.008779190018, 2.504292193987, 198.237958883
368, 6.452611739297, 2.504292193987, 196.7290381413
369, 4.709433607583, 0.1953103784777, 198.4669339795
370, 3.669265570394, 2.69101818449, 199.1089021778
371, 2.709976562646, 1.857684851157, 199.5270197974
372, 7.408873150076, 2.500204534492, 195.018045501
373, 7.937549574002, 2.500204534492, 192.9976506203
374, 7.037120984672, 0.004496728479683, 195.8051186903
375, 7.93155889099, 2.5, 190.9557904622
376, 7.39103626009, 2.5, 188.9385325411
377, 7.999862273683, 0.0002045344923003, 191.9530574595
378, 6.34682672233, 2.5, 187.1299085679
379, 4.87009143207, 2.5, 185.6531732777
380, 6.928203230275, 0, 188
381, 3.061467458921, 2.5, 184.6089637399
382, 1.04420953776, 2.5, 184.068441109
383, 4, 0, 185.0717967697
384, -3.061467458921, 2.5, 184.6089637399
385, -1.04420953776, 2.5, 184.068441109
386, -4.165284670629e-14, 0, 184
387, -4.87009143207, 2.5, 185.6531732777
388, -6.34682672233, 2.5, 187.1299085679
389, -4, 0, 185.0717967697
390, -7.39103626009, 2.5, 188.9385325411
391, -7.93155889099, 2.5, 190.9557904622
392, -6.928203230276, 0, 188
393, -7.937549574002, 2.500204534492, 192.9976506203
394, -7.408873150076, 2.500204534492, 195.018045501
395, -7.999862273683, 0.0002045344923003, 191.9530574595
396, -6.452611739297, 2.504292193987, 196.7290381413
397, -5.008779190018, 2.504292193987, 198.237958883
398, -7.037120984672, 0.004496728479683, 195.8051186903
399, -4.709433607583, 0.1953103784777, 198.4669339795
400, -3.669265570394, 2.69101818449, 199.1089021778
401, -2.709976562646, 1.857684851157, 199.5270197974
402, 6.452611739297, -2.495707806013, 196.7290381413
403, 5.008779190018, -2.495707806013, 198.237958883
404, 3.669265570394, -2.30898181551, 199.1089021778
405, 2.586464490448, -0.8508646286017, 199.570350153
406, 7.937549574002, -2.499795465508, 192.9976506203
407, 7.408873150076, -2.499795465508, 195.018045501
408, 7.39103626009, -2.5, 188.9385325411
409, 7.93155889099, -2.5, 190.9557904622
410, 4.87009143207, -2.5, 185.6531732777
411, 6.34682672233, -2.5, 187.1299085679
412, 1.04420953776, -2.5, 184.068441109
413, 3.061467458921, -2.5, 184.6089637399
414, -1.04420953776, -2.5, 184.068441109
415, -3.061467458921, -2.5, 184.6089637399
416, -6.34682672233, -2.5, 187.1299085679
417, -4.87009143207, -2.5, 185.6531732777
418, -7.93155889099, -2.5, 190.9557904622
419, -7.39103626009, -2.5, 188.9385325411
420, -7.408873150076, -2.499795465508, 195.018045501
421, -7.937549574002, -2.499795465508, 192.9976506203
422, -5.008779190018, -2.495707806013, 198.237958883
423, -6.452611739297, -2.495707806013, 196.7290381413
424, -3.669265570394, -2.30898181551, 199.1089021778
425, -2.586464490448, -0.8508646286017, 199.570350153
426, 0.914301775996, -0.2085494797587, 199.9475815354
427, -0.914301775996, -0.2085494797587, 199.9475815354
428, -1.704319104564, 1.024351517824, 199.8163480213
429, 1.704319104564, 1.024351517824, 199.8163480213
430, -5, 0, 114
431, 5, 0, 114
432, 0, -3, 114
433, 0, 3, 114
434, 0, 0, 48
435, -2.5, 1.5, 48
436, -2.5, -1.5, 48
437, 2.5, -1.5, 48
438, 2.5, 1.5, 48
439, 0, 0, 180
440, -2.5, -1.5, 180
441, -2.5, 1.5, 180
442, 2.5, -1.5, 180
443, 2.5, 1.5, 180
444, 7.246933262871, 0, 75.04592313609
445, -7.246933262871, 0, 75.04592313609
446, 14, 0, 72.24871130596
447, -14, 0, 72.24871130596
448, 19.79898987322, 0, 67.79898987322
449, 24.24871130596, 0, 62
450, 27.04592313609, 0, 55.24693326287
451, 28, 0, 48
452, 27.04592313609, 0, 40.75306673713
453, 19.79898987322, 0, 28.20101012678
454, 24.24871130596, 0, 34
455, 7.24693326287, 0, 20.95407686391
456, -1.706539592236e-13, 0, 20
457, 14, 0, 23.75128869404
458, -7.246933262871, 0, 20.95407686391
459, -14, 0, 23.75128869404
460, -19.79898987322, 0, 28.20101012678
461, -24.24871130596, 0, 34
462, -27.04592313609, 0, 40.75306673713
463, -27.04592313609, 0, 55.24693326287
464, -24.24871130596, 0, 62
465, -28, 0, 48
466, -19.79898987322, 0, 67.79898987322
467, -7.174332940777e-15, 5, 48
468, -3.751288694036, 5, 62
469, -14, 5, 51.75128869404
470, 3.751288694036, 5, 34
471, 14, 5, 44.24871130596
472, 10.24871130596, 5, 58.24871130596
473, -10.24871130596, 5, 37.75128869404
474, 5.124355652982, 5, 67.12435565298
475, -14, 5, 62
476, 19.12435565298, 5, 53.12435565298
477, 14, 5, 34
478, 9.562177826491, 5, 69.68653347947
479, 2.562177826491, 5, 71.56217782649
480, -1.875644347018, 5, 69
481, -8.875644347018, 5, 67.12435565298
482, 0.6865334794732, 5, 64.56217782649
483, 17.24871130596, 5, 60.12435565298
484, 12.12435565298, 5, 65.24871130596
485, 7.686533479473, 5, 62.68653347947
486, 23.56217782649, 5, 50.56217782649
487, 21.68653347947, 5, 57.56217782649
488, 14.68653347947, 5, 55.68653347947
489, 19.12435565298, 5, 39.12435565298
490, 21, 5, 46.12435565298
491, 16.56217782649, 5, 48.68653347947
492, 14, 5, 28.87564434702
493, 19.12435565298, 5, 34
494, 14, 5, 39.12435565298
495, 1.875644347018, 5, 27
496, 8.875644347018, 5, 28.87564434702
497, 8.875644347018, 5, 34
498, -12.12435565298, 5, 30.75128869404
499, -5.124355652982, 5, 28.87564434702
500, -3.248711305964, 5, 35.87564434702
501, -17.24871130596, 5, 35.87564434702
502, -21, 5, 49.87564434702
503, -19.12435565298, 5, 42.87564434702
504, -12.12435565298, 5, 44.75128869404
505, -19.12435565298, 5, 56.87564434702
506, -14, 5, 67.12435565298
507, -19.12435565298, 5, 62
508, -14, 5, 56.87564434702
509, -8.875644347018, 5, 62
510, -7, 5, 49.87564434702
511, -8.875644347018, 5, 56.87564434702
512, -1.875644347018, 5, 55
513, 3.248711305964, 5, 60.12435565298
514, 5.124355652982, 5, 53.12435565298
515, -5.124355652982, 5, 42.87564434702
516, 7, 5, 46.12435565298
517, 8.875644347018, 5, 39.12435565298
518, 1.875644347018, 5, 41
519, 12.12435565298, 5, 51.24871130596
520, -7.174332940777e-15, -5, 48
521, -3.751288694036, -5, 62
522, -14, -5, 51.75128869404
523, 3.751288694036, -5, 34
524, 14, -5, 44.24871130596
525, 10.24871130596, -5, 58.24871130596
526, -10.24871130596, -5, 37.75128869404
527, 5.124355652982, -5, 67.12435565298
528, -14, -5, 62
529, 19.12435565298, -5, 53.12435565298
530, 14, -5, 34
531, 2.562177826491, -5, 71.56217782649
532, 9.562177826491, -5, 69.68653347947
533, -8.875644347018, -5, 67.12435565298
534, -1.875644347018, -5, 69
535, 0.6865334794732, -5, 64.56217782649
536, 12.12435565298, -5, 65.24871130596
537, 17.24871130596, -5, 60.12435565298
538, 7.686533479473, -5, 62.68653347947
539, 21.68653347947, -5, 57.56217782649
540, 23.56217782649, -5, 50.56217782649
541, 14.68653347947, -5, 55.68653347947
542, 21, -5, 46.12435565298
543, 19.12435565298, -5, 39.12435565298
544, 16.56217782649, -5, 48.68653347947
545, 19.12435565298, -5, 34
546, 14, -5, 28.87564434702
547, 14, -5, 39.12435565298
548, 8.875644347018, -5, 28.87564434702
549, 1.875644347018, -5, 27
550, 8.875644347018, -5, 34
551, -5.124355652982, -5, 28.87564434702
552, -12.12435565298, -5, 30.75128869404
553, -3.248711305964, -5, 35.87564434702
554, -17.24871130596, -5, 35.87564434702
555, -19.12435565298, -5, 42.87564434702
556, -21, -5, 49.87564434702
557, -12.12435565298, -5, 44.75128869404
558, -19.12435565298, -5, 56.87564434702
559, -19.12435565298, -5, 62
560, -14, -5, 67.12435565298
561, -14, -5, 56.87564434702
562, -8.875644347018, -5, 62
563, -1.875644347018, -5, 55
564, -8.875644347018, -5, 56.87564434702
565, -7, -5, 49.87564434702
566, 5.124355652982, -5, 53.12435565298
567, 3.248711305964, -5, 60.12435565298
568, -5.124355652982, -5, 42.87564434702
569, 1.875644347018, -5, 41
570, 8.875644347018, -5, 39.12435565298
571, 7, -5, 46.12435565298
572, 12.12435565298, -5, 51.24871130596
573, 15.28761091622, -7.216767801455e-17, 195.8350285147
574, 9.274950641241, 0, 202.7846252033
575, 1.879065298762, 1.7763568394e-15, 204.5912207106
576, 16.30405949595, -2.5, 198.9175142573
577, 17.64380545811, -2.5, 193.9175142573
578, 16.30405949595, 2.5, 198.9175142573
579, 17.64380545811, 2.5, 193.9175142573
580, 5.701942847077, 2.5, 183.4696300282
581, 7.495093791413, 2.5, 184.5049062086
582, 5.701942847077, -2.5, 183.4696300282
583, 7.495093791413, -2.5, 184.5049062086
584, 9.333333333333, 0, 182.6666666667
585, 0.5965608728647, 2.5, 181.8377929749
586, 2.667113233685, 2.5, 181.8377929749
587, 0.5965608728647, -2.5, 181.8377929749
588, 2.667113233685, -2.5, 181.8377929749
589, 3.26367410655, 0, 179.4029925601
590, -7.39089132769, -2.5, 184.5328271746
591, -9.124928405887, 0, 182.7225085987
592, -7.39089132769, 2.5, 184.5328271746
593, -5.597740383354, 2.5, 183.4975509942
594, -5.597740383354, -2.5, 183.4975509942
595, 10.1622070251, 2.5, 189.3328867663
596, 10.17409037491, 2.500204534492, 191.3580256038
597, 10.17409037491, -2.499795465508, 191.3580256038
598, 12.59700743988, 0, 188.7363258935
599, 10.1622070251, -2.5, 189.3328867663
600, -9.140737844336, 2.504292193987, 196.340541477
601, -10.06600999924, 2.500204534492, 194.6293590862
602, -10.06600999924, -2.499795465508, 194.6293590862
603, -12.38084668855, 0, 195.2789928582
604, -9.140737844336, -2.495707806013, 196.340541477
605, -6.308593102571, 2.69101818449, 200.1820091744
606, -3.401233424572, 2.69101818449, 201.9074948027
607, -3.472079033996, 0, 204.5411655079
608, -3.401233424572, -2.30898181551, 201.9074948027
609, -6.379438711995, 0, 202.8156798796
610, 6.298503719941, 0, 181.0348296134
611, -6.308593102571, -2.30898181551, 200.1820091744
612, -9.286798389993, 0, 201.0901942513
613, 12.47543789887, 0, 192.0232674717
614, 10.0525208339, -2.499795465508, 194.644967182
615, -6.217568727888, 0, 181.1843201204
616, -2.690380705355, 2.5, 181.9593625159
617, -2.690380705355, -2.5, 181.9593625159
618, -0.02326747167005, 0, 179.5245621011
619, -7.59371369506, 2.504292193987, 199.2461421735
620, -10.83382253927, 0, 198.1845935548
621, -7.59371369506, -2.495707806013, 199.2461421735
622, 10.0525208339, 2.500204534492, 194.644967182
623, 12.35386835786, 0, 195.3102090499
624, -3.31020904989, 0, 179.6461316421
625, 0.9395326493808, 0.8333333333333, 202.2956103553
626, 0.9395326493808, -0.8333333333333, 202.2956103553
627, 0.03122166029049, -1.041882813092, 202.1911168881
628, -2.771315697408, 4.166666666667, 202.1342860591
629, -1.736039516998, 3.333333333333, 202.2705827539
630, -0.7256612581935, 0.1910181844904, 201.932522404
631, -12.74957043532, 0, 188.583762898
632, -16.37478521766, 0, 190.291881449
633, -12.56520856193, 0, 191.9313778781
634, -1.736039516998, 0, 208.2705827539
635, -0.7965068676172, 2.5, 204.5661931092
636, -0.7965068676172, -2.5, 204.5661931092
637, 0.9395326493808, 2.5, 208.2956103553
638, 9.126930844688, 2.5, 187.539735822
639, 9.126930844688, -2.5, 187.539735822
640, -8.4261675081, -2.5, 186.3259781189
641, -8.4261675081, 2.5, 186.3259781189
642, -9.643399194997, 0, 205.2053511635
643, -14.85067738212, 0, 198.6394964291
644, -2.644350506088, -3.541882813092, 202.1660892867
645, -10.05412664943, 2.5, 192.6042202487
646, -10.05412664943, -2.5, 192.6042202487
647, 2.743394731404, 4.166666666667, 202.2384885228
648, 3.373312458568, 2.69101818449, 202.0116972664
649, 9.127248678994, 2.504292193987, 196.3561495728
650, 7.587789820683, 0.004292193987383, 200.0933576496
651, 10.81440949955, 2.5, 199.0474171266
652, 8.513061975587, 0.0002045344923003, 198.3821752587
653, 9.127248678994, -2.495707806013, 196.3561495728
654, 10.81440949955, -2.5, 199.0474171266
655, -15.03503925551, 0, 185.291881449
656, -6.736039516998, 0, 206.9308367918
657, -13.30365323284, 0, 201.5450971257
658, -16.19042334427, 0, 193.6394964291
659, 5.545786309711, -1.041882813092, 201.2878191345
660, 6.302669228195, 0.1910181844904, 201.0292246504
661, 6.63747532062, -2.5, 200.8564142168
662, 10.96517038661, 0, 185.7014962801
663, 13.32692070451, 0, 182.3333333333
664, 9.666666666667, 0, 178.6730792955
665, -10.9372494206, 0, 185.6531357483
666, -10.23848852282, -2.5, 189.2566052686
667, -10.23848852282, 2.5, 189.2566052686
668, 6.631837053275, 0, 177.0412422422
669, -13.22271824079, 0, 182.3612542993
670, 14.95875775779, 0, 185.3681629467
671, 1.631837053275, 0, 175.7014962801
672, -9.562464202944, 0, 178.7010002615
673, -6.655104524945, 0, 177.1628117832
674, -1.655104524945, 0, 175.8230658211
675, 13.82073963704, -2.5, 195.5726187823
676, 13.82073963704, 2.5, 195.5726187823
677, 12.28128077873, -3.608383900728e-17, 199.309826859
678, 7.589060200726, -2.495707806013, 199.2635092508
679, 0.9395326493808, -2.5, 208.2956103553
680, 7.589060200726, 2.504292193987, 199.2635092508
681, 16.29850371994, 0, 190.3681629467
682, 2.616429540084, -3.541882813092, 202.2702917505
683, 6.345593871614, -2.5, 203.7670978193
684, 9.276221021283, -2.5, 201.9547768046
685, 9.276221021283, 2.5, 201.9547768046
686, 6.303939608237, 2.69101818449, 200.1993762517
687, 13.29772935846, 2.5, 202.3923126017
688, 9.63747532062, -2.5, 206.0525666395
689, 13.29772935846, -2.5, 202.3923126017
690, 1.974808829791, 1.666666666667, 202.1593136604
691, 2.647651200375, 2.5, 204.6703955729
692, 2.604726556955, 0.1910181844904, 201.932522404
693, 5.939532649381, 2.5, 206.9558643931
694, 0.9395326493808, 2.5, 202.2956103553
695, 1.847843638471, -1.041882813092, 202.1911168881
696, 9.63747532062, 2.5, 206.0525666395
697, 5.939532649381, -2.5, 206.9558643931
698, 6.345593871614, 2.5, 203.7670978193
699, 5.577007970001, 8.881784197001e-16, 203.687922957
700, 2.647651200375, -2.5, 204.6703955729
701, 0.9395326493808, -2.5, 202.2956103553
702, 13.94230917805, -2.5, 192.2856772041
703, 13.94230917805, 2.5, 192.2856772041
704, -2.5, -1.5, 114
705, -2.5, 1.5, 114
706, 0, 0, 114
707, 2.5, 1.5, 114
708, 2.5, -1.5, 114
709, 8.975377643885, -0.8976663497507, 65.49317875684
710, 5.93537837674, -0.01296017741486, 25.92144332982
711, -6.011920087684, -0.5, 28.36320878172
712, -3.005960043842, -2.75, 24.18160439086
713, -1.130315696824, -2.75, 31.18160439086
714, -8.130315696824, -2.75, 33.05724873788
715, -10.00596004384, -2.75, 26.05724873788
716, 8.875644347018, 0, 28.87564434702
717, 3.751288694036, 0, 34
718, 4.843333535388, 2.493519911293, 29.96072166491
719, 4.843333535388, -2.506480088707, 29.96072166491
720, 9.96768918837, -2.506480088707, 24.83636601193
721, 9.96768918837, 2.493519911293, 24.83636601193
722, 5.124355652982, 0, 67.12435565298
723, 9.562177826491, 0, 69.68653347947
724, 11.48768882194, -2.948833174875, 68.8709450314
725, 7.049866648434, 2.051166825125, 66.30876720491
726, 7.049866648434, -2.948833174875, 66.30876720491
727, 1.875644347018, 0, 27
728, 2.96768918837, 2.493519911293, 22.96072166491
729, -12.12435565298, 0, 30.75128869404
730, -8.130315696824, 2.25, 33.05724873788
731, -10.00596004384, 2.25, 26.05724873788
732, 2.96768918837, -2.506480088707, 22.96072166491
733, 14, 0, 28.87564434702
734, 8.875644347018, 0, 34
735, 14, 0, 34
736, 19.12435565298, 0, 53.12435565298
737, 14.68653347947, 0, 55.68653347947
738, 16.56217782649, 0, 48.68653347947
739, 14, 0, 39.12435565298
740, -8.875644347018, 0, 62
741, -14, 0, 67.12435565298
742, -14, 0, 62
743, 23.56217782649, 0, 50.56217782649
744, -10.24871130596, 0, 37.75128869404
745, 7, 0, 46.12435565298
746, 1.875644347018, 0, 41
747, 5.124355652982, 0, 53.12435565298
748, 8.875644347018, 0, 39.12435565298
749, 12.12435565298, 0, 51.24871130596
750, 10.24871130596, 0, 58.24871130596
751, -1.875644347018, 0, 55
752, 14, 0, 44.24871130596
753, 3.248711305964, 0, 60.12435565298
754, -3.751288694036, 0, 62
755, 2.562177826491, 0, 71.56217782649
756, 21.68653347947, 0, 57.56217782649
757, 19.12435565298, 0, 34
758, -19.12435565298, 0, 62
759, 0.6865334794732, 0, 64.56217782649
760, -1.875644347018, 0, 69
761, 11.48768882194, 2.051166825125, 68.8709450314
762, -8.875644347018, 0, 67.12435565298
763, 21, 0, 46.12435565298
764, -3.248711305964, 0, 35.87564434702
765, 19.12435565298, 0, 39.12435565298
766, 9.612044474925, -2.948833174875, 61.8709450314
767, -14, 0, 56.87564434702
768, -21, 0, 49.87564434702
769, 17.24871130596, 0, 60.12435565298
770, -8.875644347018, 0, 56.87564434702
771, -7, 0, 49.87564434702
772, -5.124355652982, 0, 42.87564434702
773, -19.12435565298, 0, 42.87564434702
774, -14, 0, 51.75128869404
775, -19.12435565298, 0, 56.87564434702
776, -12.12435565298, 0, 44.75128869404
777, -17.24871130596, 0, 35.87564434702
778, 9.612044474925, 2.051166825125, 61.8709450314
779, 16.61204447492, -2.948833174875, 63.74658937842
780, 2.612044474925, 2.051166825125, 63.74658937842
781, 2.612044474925, -2.948833174875, 63.74658937842
782, -3.005960043842, 2.25, 24.18160439086


** Volume elements
*Element, TYPE=C3D10, ELSET=Evolumes
388, 41, 40, 16, 573, 52, 179, 177, 577, 576, 578
389, 41, 16, 17, 573, 177, 28, 178, 577, 578, 579
390, 353, 352, 196, 268, 383, 580, 581, 583, 582, 584
391, 352, 351, 202, 274, 386, 585, 586, 588, 587, 589
392, 201, 344, 273, 351, 592, 590, 591, 593, 389, 594
393, 203, 342, 354, 275, 596, 377, 595, 598, 597, 599
394, 200, 339, 340, 272, 601, 398, 600, 603, 602, 604
395, 346, 197, 198, 269, 606, 246, 605, 608, 607, 609
396, 274, 196, 352, 268, 610, 580, 588, 302, 584, 582
397, 198, 270, 346, 269, 612, 611, 605, 609, 318, 608
398, 196, 352, 202, 274, 580, 586, 230, 610, 588, 589
399, 342, 203, 278, 275, 596, 613, 614, 597, 598, 296
400, 204, 201, 273, 351, 236, 591, 615, 616, 593, 594
401, 276, 202, 351, 274, 618, 585, 617, 305, 589, 587
402, 272, 340, 198, 270, 604, 619, 620, 317, 621, 612
403, 278, 342, 206, 203, 614, 622, 623, 613, 596, 224
404, 276, 204, 273, 351, 624, 615, 308, 617, 616, 594
405, 351, 276, 204, 202, 617, 624, 616, 585, 618, 233
406, 200, 340, 198, 272, 600, 619, 245, 603, 604, 620
407, 198, 340, 346, 270, 619, 399, 605, 612, 621, 611
408, 108, 109, 350, 575, 111, 427, 366, 626, 625, 627
409, 345, 346, 109, 197, 401, 428, 359, 628, 606, 629
410, 109, 346, 350, 575, 428, 425, 427, 625, 630, 627
411, 199, 47, 271, 272, 632, 310, 631, 633, 312, 314
412, 269, 197, 1, 575, 607, 209, 634, 636, 635, 637
413, 353, 65, 354, 203, 378, 376, 380, 638, 252, 595
414, 354, 88, 353, 275, 408, 411, 380, 599, 323, 639
415, 344, 273, 92, 343, 590, 331, 416, 392, 640, 419
416, 343, 69, 344, 201, 390, 388, 392, 641, 260, 592
417, 269, 198, 270, 49, 609, 612, 318, 281, 642, 316
418, 198, 24, 200, 272, 244, 240, 245, 620, 643, 603
419, 269, 350, 346, 575, 644, 425, 608, 636, 627, 630
420, 346, 95, 350, 269, 424, 364, 425, 608, 287, 644
421, 342, 87, 354, 275, 406, 409, 377, 597, 324, 599
422, 64, 342, 354, 203, 373, 377, 375, 251, 596, 595
423, 343, 339, 70, 200, 395, 393, 391, 645, 601, 263
424, 272, 343, 339, 93, 646, 395, 602, 336, 418, 421
425, 195, 348, 62, 347, 647, 356, 213, 648, 371, 370
426, 206, 341, 342, 574, 649, 374, 622, 651, 650, 652
427, 342, 341, 278, 574, 374, 653, 614, 652, 650, 654
428, 72, 346, 345, 197, 400, 401, 358, 214, 606, 628
429, 278, 206, 342, 574, 623, 622, 614, 654, 651, 652
430, 272, 339, 340, 94, 602, 398, 604, 335, 420, 423
431, 199, 46, 271, 47, 655, 309, 631, 632, 58, 310
432, 340, 71, 339, 200, 396, 394, 398, 600, 264, 601
433, 341, 278, 86, 342, 653, 322, 402, 374, 614, 407
434, 206, 341, 63, 342, 649, 368, 249, 622, 374, 372
435, 25, 1, 269, 197, 37, 634, 656, 210, 209, 607
436, 48, 270, 198, 49, 315, 612, 657, 60, 316, 642
437, 24, 23, 200, 272, 35, 241, 240, 643, 658, 603
438, 347, 349, 85, 574, 405, 362, 404, 660, 659, 661
439, 196, 275, 268, 42, 662, 299, 584, 663, 295, 297
440, 43, 196, 274, 268, 664, 610, 300, 298, 584, 302
441, 46, 273, 199, 271, 307, 665, 655, 309, 311, 631
442, 197, 346, 109, 575, 606, 428, 629, 635, 630, 625
443, 65, 353, 196, 203, 378, 581, 253, 252, 638, 227
444, 268, 353, 88, 275, 583, 411, 326, 299, 639, 323
445, 271, 92, 273, 343, 334, 331, 311, 666, 419, 640
446, 69, 343, 199, 201, 390, 667, 261, 260, 641, 239
447, 196, 202, 43, 274, 230, 668, 664, 610, 589, 300
448, 46, 199, 273, 201, 655, 665, 307, 669, 239, 591
449, 275, 196, 203, 42, 662, 227, 598, 295, 663, 670
450, 198, 197, 25, 269, 246, 210, 243, 609, 607, 656
451, 199, 23, 272, 200, 237, 658, 633, 242, 241, 603
452, 202, 276, 44, 274, 618, 303, 671, 589, 305, 301
453, 273, 204, 21, 201, 615, 231, 672, 591, 236, 235
454, 48, 272, 198, 270, 313, 620, 657, 315, 317, 612
455, 273, 276, 21, 204, 308, 673, 672, 615, 624, 231
456, 204, 276, 44, 202, 624, 303, 674, 233, 618, 671
457, 343, 70, 199, 200, 391, 262, 667, 645, 263, 242
458, 343, 272, 271, 93, 646, 314, 666, 418, 336, 333
459, 95, 346, 340, 270, 424, 399, 422, 337, 611, 621
460, 346, 197, 269, 575, 606, 607, 608, 630, 635, 636
461, 206, 278, 573, 574, 623, 675, 676, 651, 654, 677
462, 87, 342, 278, 275, 406, 614, 321, 324, 597, 296
463, 342, 64, 206, 203, 373, 250, 622, 596, 251, 224
464, 18, 203, 196, 42, 222, 227, 226, 181, 670, 663
465, 199, 46, 22, 201, 655, 188, 238, 239, 669, 234
466, 3, 345, 109, 197, 357, 359, 112, 215, 628, 629
467, 199, 272, 23, 47, 633, 658, 237, 632, 312, 193
468, 272, 94, 340, 270, 335, 423, 604, 317, 338, 621
469, 71, 340, 198, 200, 396, 619, 265, 264, 600, 245
470, 198, 269, 25, 49, 609, 656, 243, 642, 281, 175
471, 277, 278, 86, 341, 293, 322, 319, 678, 653, 402
472, 2, 269, 1, 575, 282, 634, 38, 679, 636, 637
473, 206, 205, 63, 341, 221, 248, 249, 649, 680, 368
474, 346, 270, 95, 269, 611, 337, 424, 608, 318, 287
475, 21, 276, 273, 45, 673, 308, 672, 189, 304, 306
476, 198, 48, 24, 272, 657, 192, 244, 620, 313, 643
477, 42, 196, 43, 268, 663, 664, 54, 297, 584, 298
478, 43, 202, 44, 274, 668, 671, 55, 300, 589, 301
479, 17, 275, 203, 42, 681, 598, 223, 180, 295, 670
480, 46, 273, 21, 201, 307, 672, 187, 669, 591, 235
481, 44, 21, 276, 204, 185, 673, 303, 674, 231, 624
482, 85, 349, 267, 574, 362, 682, 284, 661, 659, 683
483, 277, 278, 341, 574, 293, 653, 678, 684, 654, 650
484, 206, 205, 341, 574, 221, 680, 649, 651, 685, 650
485, 341, 347, 85, 574, 369, 404, 403, 650, 660, 661
486, 195, 62, 205, 347, 213, 247, 218, 648, 370, 686
487, 72, 340, 346, 198, 397, 399, 400, 266, 619, 605
488, 39, 16, 40, 574, 176, 179, 51, 688, 687, 689
489, 205, 347, 62, 341, 686, 370, 247, 680, 369, 367
490, 72, 198, 346, 197, 266, 605, 400, 214, 246, 606
491, 21, 44, 276, 45, 185, 303, 673, 189, 56, 304
492, 22, 23, 46, 199, 34, 190, 188, 238, 237, 655
493, 46, 199, 23, 47, 655, 237, 190, 58, 632, 193
494, 196, 19, 18, 42, 225, 30, 226, 663, 182, 181
495, 272, 23, 48, 24, 658, 191, 313, 643, 35, 192
496, 272, 48, 23, 47, 313, 191, 658, 312, 59, 193
497, 195, 348, 347, 575, 647, 371, 648, 691, 690, 692
498, 21, 273, 46, 45, 672, 307, 187, 189, 306, 57
499, 2, 25, 269, 49, 173, 656, 282, 61, 175, 281
500, 21, 22, 46, 201, 33, 188, 187, 235, 234, 669
501, 203, 18, 17, 42, 222, 29, 223, 670, 181, 180
502, 25, 269, 1, 2, 656, 634, 37, 173, 282, 38
503, 48, 198, 25, 49, 657, 243, 194, 60, 642, 175
504, 198, 25, 24, 48, 243, 36, 244, 657, 194, 192
505, 15, 2, 1, 575, 172, 38, 26, 693, 679, 637
506, 277, 40, 278, 574, 289, 291, 293, 684, 689, 654
507, 15, 1, 195, 575, 26, 208, 207, 693, 637, 691
508, 3, 197, 109, 575, 215, 629, 112, 694, 635, 625
509, 278, 40, 573, 574, 291, 576, 675, 654, 689, 677
510, 196, 43, 202, 19, 664, 668, 230, 225, 183, 229
511, 20, 204, 44, 202, 232, 674, 186, 228, 233, 671
512, 353, 196, 66, 65, 581, 254, 379, 378, 253, 77
513, 343, 69, 199, 70, 390, 261, 667, 391, 81, 262
514, 343, 271, 92, 93, 666, 334, 419, 418, 333, 104
515, 353, 88, 89, 268, 411, 100, 410, 583, 326, 325
516, 108, 349, 109, 575, 365, 426, 111, 626, 695, 625
517, 94, 95, 340, 270, 106, 422, 423, 338, 337, 621
518, 89, 352, 274, 90, 413, 588, 328, 101, 412, 327
519, 67, 202, 66, 352, 256, 255, 78, 382, 586, 381
520, 64, 354, 65, 203, 375, 376, 76, 251, 595, 252
521, 91, 273, 92, 344, 332, 331, 103, 417, 590, 416
522, 344, 201, 69, 68, 592, 260, 388, 387, 259, 80
523, 354, 87, 88, 275, 409, 99, 408, 599, 324, 323
524, 347, 348, 109, 575, 371, 360, 429, 692, 690, 625
525, 16, 39, 15, 574, 176, 174, 27, 687, 688, 696
526, 340, 198, 72, 71, 619, 266, 397, 396, 265, 83
527, 277, 86, 85, 341, 319, 97, 320, 678, 402, 403
528, 62, 63, 205, 341, 74, 248, 247, 367, 368, 680
529, 85, 277, 341, 574, 320, 678, 403, 661, 684, 650
530, 351, 91, 276, 90, 415, 329, 617, 414, 102, 330
531, 68, 204, 67, 351, 258, 257, 79, 384, 616, 385
532, 21, 44, 20, 204, 185, 186, 32, 231, 674, 232
533, 42, 43, 196, 19, 54, 664, 663, 182, 183, 225
534, 86, 342, 278, 87, 407, 614, 322, 98, 406, 321
535, 206, 342, 63, 64, 622, 372, 249, 250, 373, 75
536, 17, 41, 275, 42, 178, 294, 681, 180, 53, 295
537, 202, 20, 19, 43, 228, 31, 229, 668, 184, 183
538, 43, 44, 202, 20, 55, 671, 668, 184, 186, 228
539, 39, 2, 15, 575, 50, 172, 174, 697, 679, 693
540, 3, 62, 195, 348, 73, 213, 212, 355, 356, 647
541, 339, 94, 272, 93, 420, 335, 602, 421, 105, 336
542, 71, 70, 339, 200, 82, 393, 394, 264, 263, 601
543, 205, 195, 347, 574, 218, 648, 686, 685, 698, 660
544, 1, 197, 195, 575, 209, 211, 208, 637, 635, 691
545, 195, 347, 574, 575, 648, 660, 698, 691, 692, 699
546, 267, 2, 39, 575, 279, 50, 280, 700, 679, 697
547, 15, 195, 574, 575, 207, 698, 696, 693, 691, 699
548, 267, 39, 574, 575, 280, 688, 683, 700, 697, 699
549, 205, 347, 341, 574, 686, 369, 680, 685, 660, 650
550, 85, 267, 277, 574, 284, 290, 320, 661, 683, 684
551, 205, 206, 16, 574, 221, 220, 216, 685, 651, 687
552, 3, 72, 345, 197, 84, 358, 357, 215, 214, 628
553, 16, 206, 573, 574, 220, 676, 578, 687, 651, 677
554, 573, 40, 16, 574, 576, 179, 578, 677, 689, 687
555, 109, 349, 347, 575, 426, 405, 429, 625, 695, 692
556, 267, 85, 4, 349, 284, 96, 285, 682, 362, 361
557, 195, 197, 3, 575, 211, 215, 212, 691, 635, 694
558, 4, 269, 267, 575, 286, 283, 285, 701, 636, 700
559, 574, 39, 15, 575, 688, 174, 696, 699, 697, 693
560, 278, 40, 41, 573, 291, 52, 292, 675, 576, 577
561, 39, 40, 277, 574, 51, 289, 288, 688, 689, 684
562, 350, 95, 4, 269, 364, 107, 363, 644, 287, 286
563, 267, 269, 2, 575, 283, 282, 279, 700, 636, 679
564, 17, 16, 206, 573, 28, 220, 219, 579, 578, 676
565, 205, 16, 15, 574, 216, 27, 217, 685, 687, 696
566, 15, 195, 205, 574, 207, 218, 217, 696, 698, 685
567, 267, 39, 277, 574, 280, 288, 290, 683, 688, 684
568, 275, 573, 41, 17, 702, 577, 294, 681, 579, 178
569, 41, 573, 275, 278, 577, 702, 294, 292, 675, 296
570, 275, 203, 573, 17, 598, 703, 702, 681, 223, 579
571, 573, 203, 275, 278, 703, 598, 702, 675, 613, 296
572, 203, 206, 573, 17, 224, 676, 703, 223, 219, 579
573, 573, 206, 203, 278, 676, 224, 703, 675, 623, 613
574, 343, 272, 199, 271, 646, 633, 667, 666, 314, 631
575, 272, 343, 200, 339, 646, 645, 603, 602, 395, 601
576, 343, 272, 200, 199, 646, 603, 645, 667, 633, 242
577, 273, 343, 199, 271, 640, 667, 665, 311, 666, 631
578, 273, 343, 201, 199, 640, 641, 591, 665, 667, 239
579, 343, 273, 201, 344, 640, 591, 641, 392, 590, 592
580, 196, 275, 353, 268, 662, 639, 581, 584, 299, 583
581, 275, 353, 203, 196, 639, 638, 598, 662, 581, 227
582, 353, 275, 203, 354, 639, 598, 638, 380, 599, 595
583, 89, 352, 268, 274, 413, 582, 325, 328, 588, 302
584, 352, 89, 268, 353, 413, 325, 582, 383, 410, 583
585, 66, 196, 352, 202, 254, 580, 381, 255, 230, 586
586, 196, 66, 352, 353, 254, 381, 580, 581, 379, 383
587, 90, 274, 351, 352, 327, 587, 414, 412, 588, 386
588, 351, 274, 90, 276, 587, 327, 414, 617, 305, 330
589, 67, 202, 351, 204, 256, 585, 385, 257, 233, 616
590, 202, 67, 351, 352, 256, 385, 585, 586, 382, 386
591, 68, 351, 201, 204, 384, 593, 259, 258, 616, 236
592, 201, 351, 68, 344, 593, 384, 259, 592, 389, 387
593, 91, 351, 273, 344, 415, 594, 332, 417, 389, 590
594, 273, 351, 91, 276, 594, 415, 332, 308, 617, 329
595, 4, 575, 350, 269, 701, 627, 363, 286, 636, 644
596, 350, 575, 4, 108, 627, 701, 363, 366, 626, 110
597, 575, 574, 349, 347, 699, 659, 695, 692, 660, 405
598, 349, 574, 575, 267, 659, 699, 695, 682, 683, 700
599, 349, 575, 4, 267, 695, 701, 361, 682, 700, 285
600, 4, 575, 349, 108, 701, 695, 361, 110, 626, 365
601, 348, 575, 3, 109, 690, 694, 355, 360, 625, 112
602, 3, 575, 348, 195, 694, 690, 355, 212, 691, 647
603, 434, 7, 5, 439, 705, 114, 704, 706, 441, 440
604, 6, 434, 5, 10, 436, 704, 113, 121, 437, 432
605, 12, 7, 8, 434, 433, 115, 123, 438, 705, 435
606, 6, 8, 5, 434, 116, 430, 113, 436, 435, 704
607, 434, 8, 5, 7, 435, 430, 704, 705, 115, 114
608, 439, 9, 12, 11, 442, 431, 707, 443, 118, 119
609, 439, 7, 12, 434, 441, 433, 707, 706, 705, 438
610, 12, 7, 439, 11, 433, 441, 707, 119, 124, 443
611, 10, 12, 439, 9, 120, 707, 708, 117, 431, 442
612, 439, 12, 10, 434, 707, 120, 708, 706, 438, 437
613, 439, 5, 10, 9, 440, 432, 708, 442, 122, 117
614, 10, 5, 439, 434, 432, 440, 708, 437, 704, 706
615, 523, 154, 526, 711, 549, 551, 553, 713, 712, 714
616, 154, 155, 526, 711, 166, 552, 551, 712, 715, 714
617, 523, 470, 153, 710, 717, 716, 548, 719, 718, 720
618, 153, 470, 129, 710, 716, 496, 457, 720, 718, 721
619, 474, 149, 527, 709, 723, 532, 722, 725, 724, 726
620, 523, 130, 470, 710, 727, 495, 717, 719, 728, 718
621, 473, 155, 131, 711, 729, 459, 498, 730, 715, 731
622, 153, 129, 154, 710, 457, 455, 165, 720, 721, 732
623, 477, 523, 153, 530, 734, 548, 733, 735, 550, 546
624, 529, 472, 476, 471, 737, 488, 736, 738, 519, 491
625, 524, 523, 477, 530, 570, 734, 739, 547, 550, 735
626, 159, 475, 521, 528, 741, 740, 533, 560, 742, 562
627, 127, 471, 529, 476, 490, 738, 743, 486, 491, 736
628, 473, 526, 155, 711, 744, 552, 729, 730, 714, 715
629, 130, 523, 154, 710, 727, 549, 456, 728, 719, 732
630, 471, 467, 470, 520, 516, 518, 517, 745, 434, 746
631, 471, 472, 467, 520, 519, 514, 516, 745, 747, 434
632, 470, 520, 523, 524, 746, 569, 717, 748, 571, 570
633, 472, 471, 525, 520, 519, 749, 750, 747, 745, 566
634, 468, 467, 472, 520, 512, 514, 513, 751, 434, 747
635, 525, 520, 471, 524, 566, 745, 749, 572, 571, 752
636, 468, 472, 521, 520, 513, 753, 754, 751, 747, 563
637, 471, 520, 470, 524, 745, 746, 517, 752, 571, 748
638, 521, 472, 525, 520, 753, 750, 567, 563, 747, 566
639, 14, 149, 527, 474, 160, 532, 531, 755, 723, 722
640, 126, 529, 476, 127, 756, 736, 487, 138, 743, 486
641, 524, 477, 152, 530, 739, 757, 543, 547, 735, 545
642, 477, 530, 153, 152, 735, 546, 733, 757, 545, 164
643, 475, 159, 158, 528, 741, 170, 758, 742, 560, 559
644, 14, 527, 468, 474, 531, 759, 760, 755, 722, 482
645, 529, 126, 476, 472, 756, 487, 736, 737, 483, 488
646, 129, 130, 154, 710, 141, 456, 455, 721, 728, 732
647, 474, 125, 149, 709, 478, 446, 723, 725, 761, 724
648, 525, 472, 529, 471, 750, 737, 541, 749, 519, 738
649, 153, 477, 470, 523, 733, 497, 716, 548, 734, 717
650, 159, 521, 475, 468, 533, 740, 741, 762, 754, 509
651, 525, 471, 529, 524, 749, 738, 541, 572, 752, 544
652, 524, 477, 523, 470, 739, 734, 570, 748, 497, 717
653, 477, 470, 524, 471, 497, 748, 739, 494, 517, 752
654, 127, 529, 471, 524, 743, 738, 490, 763, 544, 752
655, 473, 130, 470, 523, 499, 495, 500, 764, 727, 717
656, 153, 154, 523, 710, 165, 549, 548, 720, 732, 719
657, 14, 468, 521, 159, 760, 754, 534, 171, 762, 533
658, 127, 471, 128, 524, 490, 489, 139, 763, 752, 765
659, 527, 149, 525, 709, 532, 536, 538, 726, 724, 766
660, 521, 475, 522, 528, 740, 767, 564, 562, 742, 561
661, 522, 133, 156, 157, 768, 462, 555, 556, 465, 168
662, 159, 468, 475, 135, 762, 509, 741, 447, 481, 506
663, 470, 129, 477, 153, 496, 492, 497, 716, 457, 733
664, 477, 128, 471, 524, 493, 489, 494, 739, 765, 752
665, 14, 468, 13, 474, 760, 480, 148, 755, 482, 479
666, 468, 14, 521, 527, 760, 534, 754, 759, 531, 535
667, 529, 525, 150, 472, 541, 537, 539, 737, 750, 769
668, 529, 524, 127, 151, 544, 763, 743, 540, 542, 451
669, 468, 521, 469, 520, 754, 770, 511, 751, 563, 771
670, 473, 523, 470, 520, 764, 717, 500, 772, 569, 746
671, 469, 467, 468, 520, 510, 512, 511, 771, 434, 751
672, 473, 470, 467, 520, 500, 518, 515, 772, 746, 434
673, 130, 129, 470, 710, 141, 496, 495, 728, 721, 718
674, 524, 151, 128, 127, 542, 452, 765, 763, 451, 139
675, 468, 14, 135, 159, 760, 445, 481, 762, 171, 447
676, 468, 13, 135, 14, 480, 147, 481, 760, 148, 445
677, 522, 475, 158, 528, 767, 758, 558, 561, 742, 559
678, 469, 468, 475, 521, 511, 509, 508, 770, 754, 740
679, 474, 14, 125, 13, 755, 444, 478, 479, 148, 136
680, 149, 14, 125, 474, 160, 444, 446, 723, 755, 478
681, 529, 127, 126, 151, 743, 138, 756, 540, 451, 450
682, 475, 135, 158, 159, 506, 466, 758, 741, 447, 170
683, 477, 153, 129, 152, 733, 457, 492, 757, 164, 453
684, 524, 152, 477, 128, 543, 757, 739, 765, 454, 493
685, 475, 158, 135, 134, 758, 466, 506, 507, 464, 146
686, 150, 126, 529, 472, 449, 756, 539, 769, 483, 737
687, 152, 151, 128, 524, 163, 452, 454, 543, 542, 765
688, 125, 126, 150, 472, 137, 449, 448, 484, 483, 769
689, 133, 132, 469, 522, 144, 503, 502, 768, 773, 774
690, 522, 156, 133, 132, 555, 462, 768, 773, 461, 144
691, 134, 475, 158, 522, 507, 758, 464, 775, 767, 558
692, 126, 150, 529, 151, 449, 539, 756, 450, 162, 540
693, 477, 129, 128, 152, 492, 140, 493, 757, 453, 454
694, 469, 521, 522, 520, 770, 564, 774, 771, 563, 565
695, 523, 473, 526, 520, 764, 744, 553, 569, 772, 568
696, 467, 469, 473, 520, 510, 504, 515, 434, 771, 772
697, 522, 132, 469, 473, 773, 503, 774, 776, 501, 504
698, 132, 156, 526, 522, 461, 554, 777, 773, 555, 557
699, 526, 473, 132, 522, 744, 501, 777, 557, 776, 773
700, 522, 158, 133, 157, 558, 463, 768, 556, 169, 465
701, 522, 133, 158, 134, 768, 463, 558, 775, 145, 464
702, 472, 125, 474, 709, 484, 478, 485, 778, 761, 725
703, 475, 134, 469, 522, 507, 505, 508, 767, 775, 774
704, 521, 522, 475, 469, 564, 767, 740, 770, 774, 508
705, 134, 133, 469, 522, 145, 502, 505, 775, 768, 774
706, 523, 526, 473, 711, 553, 744, 764, 713, 714, 730
707, 522, 473, 469, 520, 776, 504, 774, 565, 772, 771
708, 473, 522, 526, 520, 776, 557, 744, 772, 565, 568
709, 132, 155, 131, 473, 460, 459, 143, 501, 729, 498
710, 154, 131, 155, 711, 458, 459, 166, 712, 731, 715
711, 155, 156, 526, 132, 167, 554, 552, 460, 461, 777
712, 155, 132, 526, 473, 460, 777, 552, 729, 501, 744
713, 150, 149, 709, 525, 161, 724, 779, 537, 536, 766
714, 709, 149, 150, 125, 724, 161, 779, 761, 446, 448
715, 709, 472, 150, 525, 778, 769, 779, 766, 750, 537
716, 150, 472, 709, 125, 769, 778, 779, 448, 484, 761
717, 468, 709, 474, 527, 780, 725, 482, 759, 726, 722
718, 474, 709, 468, 472, 725, 780, 482, 485, 778, 513
719, 468, 521, 709, 527, 754, 781, 780, 759, 535, 726
720, 709, 521, 468, 472, 781, 754, 780, 778, 753, 513
721, 521, 525, 709, 527, 567, 766, 781, 535, 538, 726
722, 709, 525, 521, 472, 766, 567, 781, 778, 750, 753
723, 130, 711, 473, 131, 782, 730, 499, 142, 731, 498
724, 711, 130, 473, 523, 782, 499, 730, 713, 727, 764
725, 711, 130, 154, 131, 782, 456, 712, 731, 142, 458
726, 130, 711, 154, 523, 782, 712, 456, 727, 713, 549

** Define element set Eall
*ELSET, ELSET=Eall
Evolumes



***********************************************************
** Element sets for materials and FEM element type (solid, shell, beam, fluid)
*ELSET,ELSET=FEMPart002_MaterialSolid
Evolumes

** Physical constants for SI(mm) unit system with Kelvins
*PHYSICAL CONSTANTS, ABSOLUTE ZERO=0, STEFAN BOLTZMANN=5.670374419e-11

***********************************************************
** Materials
** see information about units at file end
** FreeCAD material name: CalculiX-Steel
** Material (FEMPart (LongPendulum001))
*MATERIAL, NAME=FEMPart002_Material
*ELASTIC
210000,0.3
*DENSITY
7.9E-09
*EXPANSION, ZERO=0
1.2E-05

***********************************************************
** Sections
*SOLID SECTION, ELSET=FEMPart002_MaterialSolid, MATERIAL=FEMPart002_Material

***********************************************************
** At least one step is needed to run an CalculiX analysis of FreeCAD
*STEP, INC=2000
*STATIC
1.0,1.0,1e-05,1.0

***********************************************************
** Automatic 3-2-1 constraints
** nodeXYZ 167: x=-19.7989898732, y=-5, z=28.2010101268
** nodeYZ 164: x=19.7989898732, y=-5, z=28.2010101268
** nodeZ 140: x=19.7989898732, y=5, z=28.2010101268
*BOUNDARY
167,1,1,0
167,2,2,0
167,3,3,0
164,2,2,0
164,3,3,0
140,3,3,0

***********************************************************
** MbDPart D'Alembert element loads
*DLOAD
15,GRAV,15395725.64686,0.4631962814818,-3.561782036311E-17,-0.8862557220246
16,GRAV,15058907.52937,0.4250024275568,-3.593959189552E-17,-0.9051922097382
17,GRAV,14456966.72104,0.3993598466927,-3.611672595168E-17,-0.9167942587351
18,GRAV,13729112.96324,0.3947453202579,-3.61461548916E-17,-0.9187905812178
19,GRAV,13066052.72421,0.4157986635059,-3.600900154977E-17,-0.9094566902424
20,GRAV,12667441.01985,0.4586552994486,-3.566332379812E-17,-0.8886142674343
21,GRAV,12667441.02929,0.5091694012046,-3.513547879945E-17,-0.860666323773
22,GRAV,13066052.74924,0.5495955140777,-3.461089694483E-17,-0.8354308893653
23,GRAV,13729112.99577,0.5686881754901,-3.432854629183E-17,-0.8225531952754
24,GRAV,14456966.75193,0.5645453351683,-3.439062709454E-17,-0.8254020623549
25,GRAV,15058907.55108,0.5410929674914,-3.47265086533E-17,-0.8409627818943
26,GRAV,15395725.65463,0.5047587527955,-3.518351505765E-17,-0.8632604482289
27,GRAV,15489357.61739,0.4841140699237,-3.541055313995E-17,-0.8750048955874
28,GRAV,15395725.64686,0.4631962814818,-3.561782036311E-17,-0.8862557220246
29,GRAV,15058907.52937,0.4250024275568,-3.593959189552E-17,-0.9051922097382
30,GRAV,14456966.72104,0.3993598466927,-3.611672595168E-17,-0.9167942587351
31,GRAV,13729112.96324,0.3947453202579,-3.61461548916E-17,-0.9187905812178
32,GRAV,13066052.72421,0.4157986635059,-3.600900154977E-17,-0.9094566902424
33,GRAV,12667441.01985,0.4586552994486,-3.566332379812E-17,-0.8886142674343
34,GRAV,12667441.02929,0.5091694012046,-3.513547879945E-17,-0.860666323773
35,GRAV,13066052.74924,0.5495955140777,-3.461089694483E-17,-0.8354308893653
36,GRAV,13729112.99577,0.5686881754901,-3.432854629183E-17,-0.8225531952754
37,GRAV,14456966.75193,0.5645453351683,-3.439062709454E-17,-0.8254020623549
38,GRAV,15058907.55108,0.5410929674914,-3.47265086533E-17,-0.8409627818943
39,GRAV,15395725.65463,0.5047587527955,-3.518351505765E-17,-0.8632604482289
40,GRAV,14573350.8742,0.4753081208389,-3.550154796239E-17,-0.8798194077563
41,GRAV,14431891.31114,0.4597016170445,-3.565132415149E-17,-0.888073433499
42,GRAV,14183538.45606,0.4500814585391,-3.57376942634E-17,-0.8929875030925
43,GRAV,13891242.76399,0.4493576430612,-3.57443538182E-17,-0.8933519511494
44,GRAV,13633044.48544,0.458259619184,-3.56655363731E-17,-0.8888183849501
45,GRAV,13481722.1905,0.4745929608606,-3.551006706728E-17,-0.8802053859762
46,GRAV,13481722.19405,0.4935782031331,-3.531168157097E-17,-0.8697014185293
47,GRAV,13633044.49503,0.5095525407997,-3.512955313097E-17,-0.8604395435849
48,GRAV,13891242.77685,0.518122724805,-3.502579596928E-17,-0.8553062855145
49,GRAV,14183538.46865,0.5174294230329,-3.503394452273E-17,-0.8557258861223
50,GRAV,14431891.3202,0.5081553274683,-3.514500912962E-17,-0.8612654429185
51,GRAV,14573350.87748,0.4928712581283,-3.531802269344E-17,-0.8701022485381
52,GRAV,14573350.8742,0.4753081208389,-3.550154796239E-17,-0.8798194077563
53,GRAV,14431891.31114,0.4597016170445,-3.565132415149E-17,-0.888073433499
54,GRAV,14183538.45606,0.4500814585391,-3.57376942634E-17,-0.8929875030925
55,GRAV,13891242.76399,0.4493576430612,-3.57443538182E-17,-0.8933519511494
56,GRAV,13633044.48544,0.458259619184,-3.56655363731E-17,-0.8888183849501
57,GRAV,13481722.1905,0.4745929608606,-3.551006706728E-17,-0.8802053859762
58,GRAV,13481722.19405,0.4935782031331,-3.531168157097E-17,-0.8697014185293
59,GRAV,13633044.49503,0.5095525407997,-3.512955313097E-17,-0.8604395435849
60,GRAV,13891242.77685,0.518122724805,-3.502579596928E-17,-0.8553062855145
61,GRAV,14183538.46865,0.5174294230329,-3.503394452273E-17,-0.8557258861223
62,GRAV,14431891.3202,0.5081553274683,-3.514500912962E-17,-0.8612654429185
63,GRAV,14573350.87748,0.4928712581283,-3.531802269344E-17,-0.8701022485381
64,GRAV,14611806.77081,0.4841140704788,-3.541152270728E-17,-0.8750048952803
65,GRAV,14611806.77081,0.4841140704788,-3.541152270728E-17,-0.8750048952803
66,GRAV,14611806.77081,0.4841140704788,-3.541152270728E-17,-0.8750048952803
67,GRAV,8330720.58975,0.5220526484189,-3.498900401357E-17,-0.852913261873
68,GRAV,13154304.89063,0.5082492517501,-3.514558812867E-17,-0.861210019737
69,GRAV,8330720.58975,0.5220526484189,-3.498900401357E-17,-0.852913261873
70,GRAV,3515231.283577,0.5725039731176,-3.432247859761E-17,-0.8199019458231
71,GRAV,8330720.575385,0.4452424378032,-3.579162912847E-17,-0.8954100577831
72,GRAV,13154304.88154,0.4596047653547,-3.565389665857E-17,-0.8881235610337
73,GRAV,8330720.575385,0.4452424378032,-3.579162912847E-17,-0.8954100577831
74,GRAV,3515231.249535,0.3904720256974,-3.622461411876E-17,-0.9206147930312
75,GRAV,3496162.714175,0.4841141016338,-3.546593312769E-17,-0.8750048780432
76,GRAV,13149222.02652,0.4841140715688,-3.541342623877E-17,-0.8750048946772
77,GRAV,3496162.714175,0.4841141016338,-3.546593312769E-17,-0.8750048780432
78,GRAV,13149222.02652,0.4841140715688,-3.541342623877E-17,-0.8750048946772
79,GRAV,5430796.690005,0.3994810430286,-3.614471200713E-17,-0.9167414555156
80,GRAV,5090594.113015,0.2250938576433,-3.659354860389E-17,-0.9743370850231
81,GRAV,4440094.44846,0.06051788527084,-3.59409343138E-17,-0.9981671130439
82,GRAV,3543392.54983,-0.06404465724281,-3.480958294535E-17,-0.9979470336038
83,GRAV,2521095.274881,-0.08260438639999,-3.462036301593E-17,-0.9965824177395
84,GRAV,1666288.600655,0.1918904345182,-3.664178388686E-17,-0.9814163546326
85,GRAV,1666288.701197,0.7295152490705,-3.102389380799E-17,-0.6839645468689
86,GRAV,2521095.456431,0.8881940073984,-2.447604385393E-17,-0.4594686117914
87,GRAV,3543392.726281,0.8794899288297,-2.49501565192E-17,-0.4759174981938
88,GRAV,4440094.589275,0.8135003954941,-2.807267428011E-17,-0.5815643614691
89,GRAV,5090594.202927,0.7058776889439,-3.156961761798E-17,-0.7083337407262
90,GRAV,5430796.720853,0.5644362433404,-3.442101939347E-17,-0.8254766666622
91,GRAV,5543781.356187,0.4841140865072,-3.543951546736E-17,-0.8750048864122
92,GRAV,5430796.690005,0.3994810430286,-3.614471200713E-17,-0.9167414555156
93,GRAV,5090594.113015,0.2250938576433,-3.659354860389E-17,-0.9743370850231
94,GRAV,4440094.44846,0.06051788527084,-3.59409343138E-17,-0.9981671130439
95,GRAV,3543392.54983,-0.06404465724281,-3.480958294535E-17,-0.9979470336038
96,GRAV,2521095.274881,-0.08260438639999,-3.462036301593E-17,-0.9965824177395
97,GRAV,1666288.600655,0.1918904345182,-3.664178388686E-17,-0.9814163546326
98,GRAV,1666288.701197,0.7295152490705,-3.102389380799E-17,-0.6839645468689
99,GRAV,2521095.456431,0.8881940073984,-2.447604385393E-17,-0.4594686117914
100,GRAV,3543392.726281,0.8794899288297,-2.49501565192E-17,-0.4759174981938
101,GRAV,4440094.589275,0.8135003954941,-2.807267428011E-17,-0.5815643614691
102,GRAV,5090594.202927,0.7058776889439,-3.156961761798E-17,-0.7083337407262
103,GRAV,5430796.720853,0.5644362433404,-3.442101939347E-17,-0.8254766666622
104,GRAV,15425967.33883,0.4702266254332,-3.555068467295E-17,-0.8825457046146
105,GRAV,15425967.344,0.4978806191421,-3.526171542246E-17,-0.8672455759949
106,GRAV,15366460.60868,0.4561092728756,-3.568295225716E-17,-0.8899237783074
107,GRAV,15366460.61907,0.5116314408652,-3.510277568516E-17,-0.859205021353
108,GRAV,15142313.67707,0.4306698591756,-3.589631185512E-17,-0.9025095414441
109,GRAV,14338779.04687,0.3965436031666,-3.613438525538E-17,-0.9180158880911
110,GRAV,14976100.0281,0.4192551066028,-3.598191565392E-17,-0.9078684682196
111,GRAV,14575288.4219,0.4021267194717,-3.609902109042E-17,-0.9155840220793
112,GRAV,13604603.6532,0.3961213789145,-3.613792125497E-17,-0.9181981557196
113,GRAV,13853652.53442,0.3933931369243,-3.615416155548E-17,-0.9193703496529
114,GRAV,13162093.34605,0.4101148903722,-3.604816719634E-17,-0.9120338681732
115,GRAV,12704178.921,0.4501787862129,-3.573889968135E-17,-0.8929384415758
116,GRAV,12970528.51367,0.4215498269486,-3.596782378663E-17,-0.9068052400596
117,GRAV,12631856.77862,0.50090938958,-3.523117015489E-17,-0.8654997304625
118,GRAV,12631856.7723,0.4671384554376,-3.558405812223E-17,-0.884184179598
119,GRAV,13162093.37311,0.5547985121547,-3.453630173073E-17,-0.831984741994
120,GRAV,12704178.93356,0.5173361532054,-3.503714157713E-17,-0.855782276392
121,GRAV,12970528.53662,0.5442937899708,-3.46852158682E-17,-0.8388946716956
122,GRAV,13604603.68524,0.5674552154681,-3.434757548602E-17,-0.8234042618533
123,GRAV,14575288.45181,0.5620500686771,-3.442790873829E-17,-0.8271032101861
124,GRAV,13853652.56743,0.5698977282225,-3.430978420258E-17,-0.8217156316919
125,GRAV,14338779.07876,0.5670764826614,-3.43524090586E-17,-0.8236651399764
126,GRAV,14976100.05188,0.5464136681771,-3.465317758211E-17,-0.8375154346215
127,GRAV,15142313.69673,0.5358092789612,-3.47976618852E-17,-0.84433904125
128,GRAV,15250808.69057,0.4652390630217,-3.559873701774E-17,-0.8851850734387
129,GRAV,15245758.96244,0.5028497692448,-3.520564712473E-17,-0.8643738251303
130,GRAV,15130798.59181,0.4841927870546,-3.541011299497E-17,-0.8749613391255
131,GRAV,14702569.17212,0.4733185039106,-3.552116673115E-17,-0.8808913632542
132,GRAV,14697506.20219,0.4949206083697,-3.529539393435E-17,-0.8689381976936
133,GRAV,14838281.64416,0.4841943390008,-3.541042257153E-17,-0.8749604802959
134,GRAV,14941838.64043,0.431006735263,-3.589391770381E-17,-0.9023487098445
135,GRAV,14992415.85751,0.4514983850045,-3.572435724437E-17,-0.8922719363167
136,GRAV,14402221.46333,0.4088329564585,-3.605518754199E-17,-0.9126092338528
137,GRAV,14604559.52215,0.4262019171915,-3.593109614314E-17,-0.9046280593605
138,GRAV,13757369.8444,0.404824423188,-3.60825758257E-17,-0.9143944369858
139,GRAV,14070637.13444,0.4145035081189,-3.601672488455E-17,-0.9100477140003
140,GRAV,13163641.73822,0.4236061856099,-3.595238688341E-17,-0.9058464547113
141,GRAV,13509862.52263,0.4209288901652,-3.597159056169E-17,-0.9070936387299
142,GRAV,12814042.54953,0.4618820341111,-3.563335729847E-17,-0.8869413659117
143,GRAV,13081580.28132,0.4468403443553,-3.576713619647E-17,-0.8946137192423
144,GRAV,12819996.18895,0.5061040842434,-3.517117326923E-17,-0.8624724087831
145,GRAV,12931031.83646,0.4841908283545,-3.541294489994E-17,-0.8749624230431
146,GRAV,13164656.0398,0.5420596361489,-3.47156843393E-17,-0.8403400209785
147,GRAV,13088696.45678,0.5202518350406,-3.500056636332E-17,-0.8540128969383
148,GRAV,13753995.03367,0.5598520518,-3.446157459383E-17,-0.8285925899351
149,GRAV,13507414.40135,0.5447940778234,-3.467752223331E-17,-0.8385698615909
150,GRAV,14401518.55568,0.5560085258205,-3.451711350867E-17,-0.8311765872634
151,GRAV,14066512.49916,0.5510638722131,-3.458869070668E-17,-0.8344630661339
152,GRAV,14941007.02471,0.5355097091925,-3.480187438988E-17,-0.8445290707611
153,GRAV,14603012.85083,0.5400346637012,-3.474142954965E-17,-0.8416427757672
154,GRAV,14986551.75361,0.5161736243293,-3.504836242224E-17,-0.8564839692293
155,GRAV,14523950.32905,0.4541620761612,-3.570134003434E-17,-0.8909190808244
156,GRAV,14734499.76722,0.4597637734979,-3.565039709454E-17,-0.8880412561244
157,GRAV,14220528.6972,0.4426637965382,-3.58008653472E-17,-0.8966876620286
158,GRAV,14444189.51006,0.441378032413,-3.581127533351E-17,-0.89732125379
159,GRAV,13865953.89896,0.4412059470132,-3.581342083994E-17,-0.8974058793657
160,GRAV,14050884.31208,0.4333024229833,-3.587700798059E-17,-0.9012485840415
161,GRAV,13541879.19446,0.451878525896,-3.572280388397E-17,-0.8920794795499
162,GRAV,13640349.26232,0.4383435913954,-3.583718522073E-17,-0.8988074854398
163,GRAV,13356980.61914,0.4724723261214,-3.553122588549E-17,-0.8813455060585
164,GRAV,13329446.35274,0.4573328684097,-3.567438026608E-17,-0.8892955906065
165,GRAV,13362922.04015,0.495739353462,-3.528804723998E-17,-0.868471354409
166,GRAV,13223548.78421,0.4841891302239,-3.541253487626E-17,-0.8749633627604
167,GRAV,13543055.21156,0.5153810724135,-3.505979066463E-17,-0.8569611135856
168,GRAV,13336611.97646,0.5101805987414,-3.512252153177E-17,-0.8600672977552
169,GRAV,13862419.83738,0.5261268944484,-3.492549600448E-17,-0.8504060741423
170,GRAV,13637924.55845,0.5285190326432,-3.489509316336E-17,-0.8489214522757
171,GRAV,14219799.37822,0.5245464365521,-3.494514484408E-17,-0.8513818390713
172,GRAV,14046662.72949,0.5336209195649,-3.482797569777E-17,-0.8457237812683
173,GRAV,14523111.82908,0.5135242413489,-3.508101442798E-17,-0.8580750861941
174,GRAV,14442626.42469,0.5257814378787,-3.49291775301E-17,-0.8506197032648
175,GRAV,14728619.1422,0.5081974464408,-3.514416511051E-17,-0.86124059091
176,GRAV,15250808.69057,0.4652390630217,-3.559873701774E-17,-0.8851850734387
177,GRAV,15245758.96244,0.5028497692448,-3.520564712473E-17,-0.8643738251303
178,GRAV,15130798.59181,0.4841927870546,-3.541011299497E-17,-0.8749613391255
179,GRAV,14702569.17212,0.4733185039106,-3.552116673115E-17,-0.8808913632542
180,GRAV,14697506.20219,0.4949206083697,-3.529539393435E-17,-0.8689381976936
181,GRAV,14838281.64416,0.4841943390008,-3.541042257153E-17,-0.8749604802959
182,GRAV,14941838.64043,0.431006735263,-3.589391770381E-17,-0.9023487098445
183,GRAV,14992415.85751,0.4514983850045,-3.572435724437E-17,-0.8922719363167
184,GRAV,14402221.46333,0.4088329564585,-3.605518754199E-17,-0.9126092338528
185,GRAV,14604559.52215,0.4262019171915,-3.593109614314E-17,-0.9046280593605
186,GRAV,13757369.8444,0.404824423188,-3.60825758257E-17,-0.9143944369858
187,GRAV,14070637.13444,0.4145035081189,-3.601672488455E-17,-0.9100477140003
188,GRAV,13163641.73822,0.4236061856099,-3.595238688341E-17,-0.9058464547113
189,GRAV,13509862.52263,0.4209288901652,-3.597159056169E-17,-0.9070936387299
190,GRAV,12814042.54953,0.4618820341111,-3.563335729847E-17,-0.8869413659117
191,GRAV,13081580.28132,0.4468403443553,-3.576713619647E-17,-0.8946137192423
192,GRAV,12819996.18895,0.5061040842434,-3.517117326923E-17,-0.8624724087831
193,GRAV,12931031.83646,0.4841908283545,-3.541294489994E-17,-0.8749624230431
194,GRAV,13164656.0398,0.5420596361489,-3.47156843393E-17,-0.8403400209785
195,GRAV,13088696.45678,0.5202518350406,-3.500056636332E-17,-0.8540128969383
196,GRAV,13753995.03367,0.5598520518,-3.446157459383E-17,-0.8285925899351
197,GRAV,13507414.40135,0.5447940778234,-3.467752223331E-17,-0.8385698615909
198,GRAV,14401518.55568,0.5560085258205,-3.451711350867E-17,-0.8311765872634
199,GRAV,14066512.49916,0.5510638722131,-3.458869070668E-17,-0.8344630661339
200,GRAV,14941007.02471,0.5355097091925,-3.480187438988E-17,-0.8445290707611
201,GRAV,14603012.85083,0.5400346637012,-3.474142954965E-17,-0.8416427757672
202,GRAV,14986551.75361,0.5161736243293,-3.504836242224E-17,-0.8564839692293
203,GRAV,14523950.32905,0.4541620761612,-3.570134003434E-17,-0.8909190808244
204,GRAV,14734499.76722,0.4597637734979,-3.565039709454E-17,-0.8880412561244
205,GRAV,14220528.6972,0.4426637965382,-3.58008653472E-17,-0.8966876620286
206,GRAV,14444189.51006,0.441378032413,-3.581127533351E-17,-0.89732125379
207,GRAV,13865953.89896,0.4412059470132,-3.581342083994E-17,-0.8974058793657
208,GRAV,14050884.31208,0.4333024229833,-3.587700798059E-17,-0.9012485840415
209,GRAV,13541879.19446,0.451878525896,-3.572280388397E-17,-0.8920794795499
210,GRAV,13640349.26232,0.4383435913954,-3.583718522073E-17,-0.8988074854398
211,GRAV,13356980.61914,0.4724723261214,-3.553122588549E-17,-0.8813455060585
212,GRAV,13329446.35274,0.4573328684097,-3.567438026608E-17,-0.8892955906065
213,GRAV,13362922.04015,0.495739353462,-3.528804723998E-17,-0.868471354409
214,GRAV,13223548.78421,0.4841891302239,-3.541253487626E-17,-0.8749633627604
215,GRAV,13543055.21156,0.5153810724135,-3.505979066463E-17,-0.8569611135856
216,GRAV,13336611.97646,0.5101805987414,-3.512252153177E-17,-0.8600672977552
217,GRAV,13862419.83738,0.5261268944484,-3.492549600448E-17,-0.8504060741423
218,GRAV,13637924.55845,0.5285190326432,-3.489509316336E-17,-0.8489214522757
219,GRAV,14219799.37822,0.5245464365521,-3.494514484408E-17,-0.8513818390713
220,GRAV,14046662.72949,0.5336209195649,-3.482797569777E-17,-0.8457237812683
221,GRAV,14523111.82908,0.5135242413489,-3.508101442798E-17,-0.8580750861941
222,GRAV,14442626.42469,0.5257814378787,-3.49291775301E-17,-0.8506197032648
223,GRAV,14728619.1422,0.5081974464408,-3.514416511051E-17,-0.86124059091
224,GRAV,14579786.33614,0.4752082277601,-3.550253786262E-17,-0.8798733660415
225,GRAV,14579786.33946,0.4929700417239,-3.531693653008E-17,-0.8700462849543
226,GRAV,14605249.13411,0.4871350107475,-3.537972164622E-17,-0.8733266750215
227,GRAV,14605249.13298,0.481087348685,-3.544291643814E-17,-0.8766726657854
228,GRAV,14581275.2491,0.4755826310138,-3.549879486751E-17,-0.879671052768
229,GRAV,14581275.25228,0.4925997328907,-3.532097537279E-17,-0.8702559986326
230,GRAV,14606779.54376,0.4814591321644,-3.543908536268E-17,-0.8764685413953
231,GRAV,14606779.54475,0.4867645593282,-3.538364652331E-17,-0.8735332070288
232,GRAV,14430678.84713,0.4590443141963,-3.565735415107E-17,-0.8884133709057
233,GRAV,14508236.29961,0.4645426741722,-3.560615829581E-17,-0.885550734782
234,GRAV,14563136.91386,0.4702853134873,-3.555107426059E-17,-0.8825144326968
235,GRAV,14183315.63595,0.449639949384,-3.574153351217E-17,-0.8932098946597
236,GRAV,14313015.026,0.4531479688938,-3.571060336348E-17,-0.8914353135744
237,GRAV,13889777.99731,0.4489407508345,-3.574796591125E-17,-0.8935615268353
238,GRAV,14036231.85141,0.4480333773779,-3.575560592082E-17,-0.8940168302416
239,GRAV,13628486.46062,0.4579443074499,-3.566841421276E-17,-0.8889808835258
240,GRAV,13749818.99762,0.4522902528358,-3.571889903368E-17,-0.8918708018484
241,GRAV,13475322.91349,0.4744760771208,-3.55112386157E-17,-0.8802683978424
242,GRAV,13534647.2291,0.4655246542115,-3.559810958737E-17,-0.8850349124872
243,GRAV,13475322.91708,0.4936936835604,-3.531042503972E-17,-0.8696358702426
244,GRAV,13455028.67315,0.4841140713213,-3.541299401839E-17,-0.8750048948141
245,GRAV,13628486.47033,0.5098577250695,-3.512594712355E-17,-0.8602587402561
246,GRAV,13534647.23601,0.5024874922492,-3.521186795493E-17,-0.8645844783091
247,GRAV,13889778.01032,0.5185217593802,-3.502088206929E-17,-0.8550644332735
248,GRAV,13749819.00941,0.5153098896781,-3.506037797087E-17,-0.8570039192442
249,GRAV,14183315.64871,0.5178523934419,-3.502875042842E-17,-0.85546998697
250,GRAV,14036231.86476,0.5193895518966,-3.500997255659E-17,-0.8545375903848
251,GRAV,14430678.85643,0.5087925273237,-3.51375122773E-17,-0.8608891706483
252,GRAV,14313015.03747,0.5144852649595,-3.506966185167E-17,-0.8574992199061
253,GRAV,14508236.30688,0.5034461914655,-3.519963761799E-17,-0.8640265807826
254,GRAV,14563136.91901,0.4978229474926,-3.526332090516E-17,-0.8672786824025
255,GRAV,14430678.84713,0.4590443141963,-3.565735415107E-17,-0.8884133709057
256,GRAV,14508236.29961,0.4645426741722,-3.560615829581E-17,-0.885550734782
257,GRAV,14564591.14194,0.4706617688525,-3.554740667918E-17,-0.8823137193429
258,GRAV,14183315.63595,0.449639949384,-3.574153351217E-17,-0.8932098946597
259,GRAV,14313015.026,0.4531479688938,-3.571060336348E-17,-0.8914353135744
260,GRAV,13889777.99731,0.4489407508345,-3.574796591125E-17,-0.8935615268353
261,GRAV,14036231.85141,0.4480333773779,-3.575560592082E-17,-0.8940168302416
262,GRAV,13628486.46062,0.4579443074499,-3.566841421276E-17,-0.8889808835258
263,GRAV,13749818.99762,0.4522902528358,-3.571889903368E-17,-0.8918708018484
264,GRAV,13475322.91349,0.4744760771208,-3.55112386157E-17,-0.8802683978424
265,GRAV,13534647.2291,0.4655246542115,-3.559810958737E-17,-0.8850349124872
266,GRAV,13475322.91708,0.4936936835604,-3.531042503972E-17,-0.8696358702426
267,GRAV,13455028.67315,0.4841140713213,-3.541299401839E-17,-0.8750048948141
268,GRAV,13628486.47033,0.5098577250695,-3.512594712355E-17,-0.8602587402561
269,GRAV,13534647.23601,0.5024874922492,-3.521186795493E-17,-0.8645844783091
270,GRAV,13889778.01032,0.5185217593802,-3.502088206929E-17,-0.8550644332735
271,GRAV,13749819.00941,0.5153098896781,-3.506037797087E-17,-0.8570039192442
272,GRAV,14183315.64871,0.5178523934419,-3.502875042842E-17,-0.85546998697
273,GRAV,14036231.86476,0.5193895518966,-3.500997255659E-17,-0.8545375903848
274,GRAV,14430678.85643,0.5087925273237,-3.51375122773E-17,-0.8608891706483
275,GRAV,14313015.03747,0.5144852649595,-3.506966185167E-17,-0.8574992199061
276,GRAV,14508236.30688,0.5034461914655,-3.519963761799E-17,-0.8640265807826
277,GRAV,14564591.14695,0.4974529038988,-3.526745383342E-17,-0.8674909846233
278,GRAV,14606779.54376,0.4814591321644,-3.543908536268E-17,-0.8764685413953
279,GRAV,14606779.54475,0.4867645593282,-3.538364652331E-17,-0.8735332070288
280,GRAV,14588054.46044,0.4919911753172,-3.532759163491E-17,-0.8706001857397
281,GRAV,14589550.35009,0.4916209411436,-3.533161020552E-17,-0.8708093076151
282,GRAV,14588054.45749,0.4761975344613,-3.549262662483E-17,-0.8793383354392
283,GRAV,14589550.34728,0.4765713966727,-3.548886979137E-17,-0.8791357710123
284,GRAV,6723798.605238,0.5309812701293,-3.488200267477E-17,-0.8473835558777
285,GRAV,9938264.255393,0.5159792735383,-3.505920776656E-17,-0.8566010677549
286,GRAV,6723798.587441,0.4358141719922,-3.587644734623E-17,-0.9000366700811
287,GRAV,9938264.243353,0.4515933417908,-3.573200588451E-17,-0.8922238809011
288,GRAV,6714955.376447,0.499916400356,-3.525985843209E-17,-0.8660736646817
289,GRAV,9932283.441089,0.4733401732138,-3.5529121123E-17,-0.880879719611
290,GRAV,6714955.376447,0.499916400356,-3.525985843209E-17,-0.8660736646817
291,GRAV,9932283.441089,0.4733401732138,-3.5529121123E-17,-0.880879719611
292,GRAV,3504650.446469,0.5438021576778,-3.474408071946E-17,-0.8392134491921
293,GRAV,3496162.714175,0.4841141016338,-3.546593312769E-17,-0.8750048780432
294,GRAV,3496162.714175,0.4841141016338,-3.546593312769E-17,-0.8750048780432
295,GRAV,3504650.423706,0.422081146346,-3.601599953862E-17,-0.9065580543458
296,GRAV,13151481.32077,0.500249215728,-3.523787001717E-17,-0.8658814711977
297,GRAV,13149222.02652,0.4841140715688,-3.541342623877E-17,-0.8750048946772
298,GRAV,13149222.02652,0.4841140715688,-3.541342623877E-17,-0.8750048946772
299,GRAV,13151481.31471,0.4678125956185,-3.557681512492E-17,-0.8838276842126
300,GRAV,5463008.230863,0.4285077014143,-3.594222968286E-17,-0.903538128597
301,GRAV,5463008.251307,0.53782941806,-3.479987688009E-17,-0.8430536857574
302,GRAV,5404170.6008,0.3697254768914,-3.63120416733E-17,-0.9291410397445
303,GRAV,5404170.642134,0.5907493788925,-3.400246145596E-17,-0.8068551117383
304,GRAV,5007186.826041,0.1949376607905,-3.654822504294E-17,-0.9808156342583
305,GRAV,5178686.162798,0.254047765171,-3.660426781723E-17,-0.9671916733573
306,GRAV,4307262.559498,0.03391756533699,-3.574420324127E-17,-0.9994246338577
307,GRAV,4575891.18126,0.0855174168399,-3.61028291439E-17,-0.9963366757362
308,GRAV,3712138.483913,-0.04965739649788,-3.496679471167E-17,-0.9987663104916
309,GRAV,2694543.236349,-0.09540801990001,-3.445652408802E-17,-0.9954382500883
310,GRAV,3375455.945102,-0.07985160952892,-3.462834394381E-17,-0.9968067618429
311,GRAV,1577347.459106,0.2833343990496,-3.669282324215E-17,-0.9590211771985
312,GRAV,2348125.412792,-0.06789501995566,-3.480132400663E-17,-0.9976924707871
313,GRAV,1768452.383102,0.1088934565877,-3.632229100543E-17,-0.9940534266891
314,GRAV,1577347.529913,0.6619608066453,-3.273638083969E-17,-0.7495384516257
315,GRAV,2348125.590306,0.8813198516464,-2.488254080004E-17,-0.4725201785045
316,GRAV,1768452.509413,0.784314977705,-2.926449972929E-17,-0.6203628097715
317,GRAV,3375456.125899,0.8869216004746,-2.452608639038E-17,-0.4619199872398
318,GRAV,2694543.421384,0.8940268087533,-2.411746442196E-17,-0.4480134654566
319,GRAV,4575891.314627,0.7986682117,-2.865078901581E-17,-0.6017716241398
320,GRAV,3712138.656374,0.872540544311,-2.53303247569E-17,-0.4885417060328
321,GRAV,4307262.70813,0.8286976480188,-2.743918115732E-17,-0.5596965322101
322,GRAV,5007186.925615,0.7273873398173,-3.098441388831E-17,-0.6862271182877
323,GRAV,5178686.243286,0.6844418059564,-3.210688289248E-17,-0.7290674963672
324,GRAV,5256694.247603,0.4046079146393,-3.611338342134E-17,-0.9144902598777
325,GRAV,5129353.069656,0.5562038823133,-3.454565853822E-17,-0.8310458719587
326,GRAV,4986267.55133,0.4782296903533,-3.550513620119E-17,-0.8782347996206
327,GRAV,4825411.291495,0.2549903239937,-3.660763190936E-17,-0.9669436046997
328,GRAV,4856342.862442,0.3498142822177,-3.640715997598E-17,-0.9368190689544
329,GRAV,4327488.378586,0.0914796395961,-3.614167709916E-17,-0.9958069469226
330,GRAV,4410320.408733,0.2030345712172,-3.657075025386E-17,-0.9791715696908
331,GRAV,3463040.0438,0.02021598600518,-3.564633159511E-17,-0.9997956360726
332,GRAV,3831238.365741,0.1057084957663,-3.622923312021E-17,-0.9943971610593
333,GRAV,2561595.788526,-0.01502241252278,-3.535309753665E-17,-0.9998871571942
334,GRAV,3005397.421836,0.0676808984018,-3.601696397943E-17,-0.9977070191151
335,GRAV,1930380.102191,0.2756541322478,-3.667281189968E-17,-0.9612568852158
336,GRAV,2353438.562291,0.1694193465948,-3.653881210356E-17,-0.9855440553316
337,GRAV,2059354.203831,0.7148960801953,-3.140208359338E-17,-0.6992307162313
338,GRAV,2228162.896759,0.5450872376284,-3.47671704419E-17,-0.8383793314334
339,GRAV,2598468.033291,0.8292001775085,-2.745558720157E-17,-0.5589517560754
340,GRAV,3625826.581769,0.8231633573394,-2.768653878628E-17,-0.567804620564
341,GRAV,3221280.45946,0.7714563129681,-2.964676653037E-17,-0.6362822936257
342,GRAV,4247821.077584,0.7804176573042,-2.931966060851E-17,-0.6252585706472
343,GRAV,4936915.076824,0.6934623420605,-3.188813213066E-17,-0.7204928730695
344,GRAV,4456039.680558,0.7140141411652,-3.136059491849E-17,-0.7001312778444
345,GRAV,4832186.89947,0.6180152758432,-3.35246752649E-17,-0.7861660885745
346,GRAV,3952632.380881,0.5769951600046,-3.42439765874E-17,-0.8167475652435
347,GRAV,4090326.880435,0.449869471719,-3.578304304065E-17,-0.8930943166403
348,GRAV,3389714.308576,0.6292796494171,-3.333147594035E-17,-0.7771789516125
349,GRAV,3093859.394022,0.3569760126022,-3.640614552716E-17,-0.9341135511417
350,GRAV,2909380.466621,0.53103063279,-3.493011807903E-17,-0.8473526226068
351,GRAV,3702040.733786,0.33819322946,-3.646776868115E-17,-0.9410766916396
352,GRAV,4339722.271108,0.6324082053954,-3.325386803204E-17,-0.7746353088703
353,GRAV,4562246.779632,0.4288455396659,-3.594867903167E-17,-0.9033778296531
354,GRAV,2830073.099032,0.2263571813427,-3.663396340723E-17,-0.9740443657527
355,GRAV,3924558.300754,0.2304883278912,-3.661274860968E-17,-0.9730750899627
356,GRAV,5256694.247603,0.4046079146393,-3.611338342134E-17,-0.9144902598777
357,GRAV,5129353.069656,0.5562038823133,-3.454565853822E-17,-0.8310458719587
358,GRAV,4986267.55133,0.4782296903533,-3.550513620119E-17,-0.8782347996206
359,GRAV,4825411.291495,0.2549903239937,-3.660763190936E-17,-0.9669436046997
360,GRAV,4856342.862442,0.3498142822177,-3.640715997598E-17,-0.9368190689544
361,GRAV,4327488.378586,0.0914796395961,-3.614167709916E-17,-0.9958069469226
362,GRAV,4410320.408733,0.2030345712172,-3.657075025386E-17,-0.9791715696908
363,GRAV,3463040.0438,0.02021598600518,-3.564633159511E-17,-0.9997956360726
364,GRAV,3831238.365741,0.1057084957663,-3.622923312021E-17,-0.9943971610593
365,GRAV,2561595.788526,-0.01502241252278,-3.535309753665E-17,-0.9998871571942
366,GRAV,3005397.421836,0.0676808984018,-3.601696397943E-17,-0.9977070191151
367,GRAV,1930380.102191,0.2756541322478,-3.667281189968E-17,-0.9612568852158
368,GRAV,2353438.562291,0.1694193465948,-3.653881210356E-17,-0.9855440553316
369,GRAV,2059354.203831,0.7148960801953,-3.140208359338E-17,-0.6992307162313
370,GRAV,2228162.896759,0.5450872376284,-3.47671704419E-17,-0.8383793314334
371,GRAV,2598468.033291,0.8292001775085,-2.745558720157E-17,-0.5589517560754
372,GRAV,3625826.581769,0.8231633573394,-2.768653878628E-17,-0.567804620564
373,GRAV,3221280.45946,0.7714563129681,-2.964676653037E-17,-0.6362822936257
374,GRAV,4247821.077584,0.7804176573042,-2.931966060851E-17,-0.6252585706472
375,GRAV,4936915.076824,0.6934623420605,-3.188813213066E-17,-0.7204928730695
376,GRAV,4456039.680558,0.7140141411652,-3.136059491849E-17,-0.7001312778444
377,GRAV,4832186.89947,0.6180152758432,-3.35246752649E-17,-0.7861660885745
378,GRAV,3952632.380881,0.5769951600046,-3.42439765874E-17,-0.8167475652435
379,GRAV,4090326.880435,0.449869471719,-3.578304304065E-17,-0.8930943166403
380,GRAV,3389714.308576,0.6292796494171,-3.333147594035E-17,-0.7771789516125
381,GRAV,3093859.394022,0.3569760126022,-3.640614552716E-17,-0.9341135511417
382,GRAV,2909380.466621,0.53103063279,-3.493011807903E-17,-0.8473526226068
383,GRAV,3702040.733786,0.33819322946,-3.646776868115E-17,-0.9410766916396
384,GRAV,4339722.271108,0.6324082053954,-3.325386803204E-17,-0.7746353088703
385,GRAV,4562246.779632,0.4288455396659,-3.594867903167E-17,-0.9033778296531
386,GRAV,2830073.099032,0.2263571813427,-3.663396340723E-17,-0.9740443657527
387,GRAV,3924558.300754,0.2304883278912,-3.661274860968E-17,-0.9730750899627
388,GRAV,14518928.68086,0.4051855013122,-3.607925921379E-17,-0.9142344937304
389,GRAV,14341276.11486,0.4010443695778,-3.610621389331E-17,-0.9160586300177
390,GRAV,13449467.13511,0.4524086549143,-3.571826097948E-17,-0.8918107472769
391,GRAV,13284154.44287,0.4762341417877,-3.549394177559E-17,-0.879318510095
392,GRAV,13451236.46663,0.5147061299871,-3.506810666707E-17,-0.857366665875
393,GRAV,13925644.25408,0.4367006931568,-3.585009788721E-17,-0.8996068611323
394,GRAV,14298881.42048,0.526505545371,-3.492010791107E-17,-0.850171694832
395,GRAV,14788832.5868,0.5051320455005,-3.517986160084E-17,-0.8630420711695
396,GRAV,13321154.61482,0.4550291700909,-3.569515029554E-17,-0.8904765321817
397,GRAV,14728724.5486,0.5114352126116,-3.510582281616E-17,-0.8593218391854
398,GRAV,13258311.87598,0.4623307340075,-3.562852597971E-17,-0.8867075574236
399,GRAV,14028616.72757,0.4316143370489,-3.589027551007E-17,-0.9020582376176
400,GRAV,13327416.93266,0.5122238571101,-3.509818026134E-17,-0.858851978054
401,GRAV,13199052.66578,0.4827238101008,-3.542783090534E-17,-0.8757726435335
402,GRAV,14533490.13814,0.524160139429,-3.494965687337E-17,-0.851619720435
403,GRAV,14148335.1662,0.4323494728,-3.588437608833E-17,-0.9017061236177
404,GRAV,13268168.13287,0.5054483763395,-3.517813271524E-17,-0.8628568472556
405,GRAV,13203853.99005,0.490675835073,-3.534363844333E-17,-0.8713421973458
406,GRAV,14430115.4647,0.5277808575914,-3.4903595255E-17,-0.849380578045
407,GRAV,14599749.56689,0.5142863676677,-3.507172486343E-17,-0.8576185236054
408,GRAV,14691924.16849,0.4840460783682,-3.541213974262E-17,-0.8750425098339
409,GRAV,14677466.42872,0.4937552895894,-3.530822982974E-17,-0.8696008935152
410,GRAV,14678769.54116,0.4876715079297,-3.537393625721E-17,-0.8730272048187
411,GRAV,14001849.89198,0.5488574608876,-3.462004593731E-17,-0.8359159572756
412,GRAV,15081462.8793,0.4894775562543,-3.535418168312E-17,-0.8720158954533
413,GRAV,13765855.91007,0.4454078126584,-3.577837688995E-17,-0.8953278061262
414,GRAV,13765855.91007,0.4454078126584,-3.577837688995E-17,-0.8953278061262
415,GRAV,13653365.9236,0.5182284599705,-3.50248079006E-17,-0.8552422249144
416,GRAV,13653365.9236,0.5182284599705,-3.50248079006E-17,-0.8552422249144
417,GRAV,14916602.5412,0.5181074770837,-3.502474622859E-17,-0.8553155220092
418,GRAV,14526071.54215,0.5396723115222,-3.474643622218E-17,-0.8418751666228
419,GRAV,14762185.23993,0.4914010620944,-3.533379392886E-17,-0.8709334051307
420,GRAV,14659953.35163,0.4978242145335,-3.526319333679E-17,-0.8672779551125
421,GRAV,13981010.30626,0.4422973070755,-3.580421969776E-17,-0.8968684921179
422,GRAV,13981010.30626,0.4422973070755,-3.580421969776E-17,-0.8968684921179
423,GRAV,14100309.04401,0.5242738203033,-3.494874683384E-17,-0.8515497409691
424,GRAV,14100309.04401,0.5242738203033,-3.494874683384E-17,-0.8515497409691
425,GRAV,14662657.69833,0.4700685729999,-3.555306499217E-17,-0.8826298979061
426,GRAV,14433834.77268,0.4445287137336,-3.578496725595E-17,-0.8957646022624
427,GRAV,14433834.77268,0.4445287137336,-3.578496725595E-17,-0.8957646022624
428,GRAV,14658864.42229,0.4980999033239,-3.526010937609E-17,-0.8671196493615
429,GRAV,14401397.18514,0.4370760755888,-3.584648005476E-17,-0.8994245405524
430,GRAV,14307502.04743,0.5205377732464,-3.499538271547E-17,-0.85383864203
431,GRAV,13767025.26529,0.5554221956006,-3.452643065977E-17,-0.8315685086836
432,GRAV,14307502.04743,0.5205377732464,-3.499538271547E-17,-0.85383864203
433,GRAV,14308051.46704,0.4468635270985,-3.576529951743E-17,-0.8946021395844
434,GRAV,14308051.46704,0.4468635270985,-3.576529951743E-17,-0.8946021395844
435,GRAV,15170803.95195,0.5018801870057,-3.521681146669E-17,-0.8649371525673
436,GRAV,14882305.59877,0.5326759990691,-3.483942252541E-17,-0.8463192541918
437,GRAV,14374371.42604,0.5516932773819,-3.457933464019E-17,-0.8340470776231
438,GRAV,14629901.5056,0.4638422221231,-3.561261048425E-17,-0.8859178251824
439,GRAV,13472324.94268,0.4253716431214,-3.593878068514E-17,-0.9050187651249
440,GRAV,13151503.99454,0.4447977812822,-3.578438609858E-17,-0.89563102546
441,GRAV,13582662.29185,0.5441075553029,-3.468692191126E-17,-0.8390154755797
442,GRAV,14765766.06249,0.4894390483078,-3.535494949946E-17,-0.8720375095095
443,GRAV,13634530.89016,0.4430991260032,-3.579798596052E-17,-0.8964726234165
444,GRAV,13634530.89016,0.4430991260032,-3.579798596052E-17,-0.8964726234165
445,GRAV,13700006.63493,0.5261936751209,-3.492485729288E-17,-0.8503647548333
446,GRAV,13700006.63493,0.5261936751209,-3.492485729288E-17,-0.8503647548333
447,GRAV,13087417.11437,0.4521878440844,-3.57207221002E-17,-0.8919227285266
448,GRAV,13471261.55941,0.5404519098446,-3.473719780396E-17,-0.8413749064153
449,GRAV,13587085.1295,0.4218900861321,-3.596445531415E-17,-0.9066469848973
450,GRAV,14975864.76999,0.5118855111972,-3.510016389719E-17,-0.8590536790134
451,GRAV,14123403.67825,0.5479117546364,-3.463320602671E-17,-0.8365361373732
452,GRAV,12974797.98452,0.4801425672355,-3.545476631339E-17,-0.8771904668477
453,GRAV,13157686.00808,0.5220190895729,-3.497841272934E-17,-0.8529338017229
454,GRAV,14628571.33139,0.5360233703584,-3.479538710273E-17,-0.8442031428688
455,GRAV,13097245.92147,0.5152469797453,-3.506204831555E-17,-0.857041743361
456,GRAV,12979254.90121,0.4882458933184,-3.537004778221E-17,-0.8727061061192
457,GRAV,14006342.00043,0.5300901999192,-3.487426708118E-17,-0.8479412597283
458,GRAV,14006342.00043,0.5300901999192,-3.487426708118E-17,-0.8479412597283
459,GRAV,14557193.44878,0.5086655967977,-3.513885714076E-17,-0.8609641750006
460,GRAV,14849307.98584,0.4931326311762,-3.531484881881E-17,-0.8699541413599
461,GRAV,14443206.95945,0.4286004994303,-3.591305925425E-17,-0.9034941128132
462,GRAV,14083490.00144,0.4372053246884,-3.584582900096E-17,-0.8993617203685
463,GRAV,14083490.00144,0.4372053246884,-3.584582900096E-17,-0.8993617203685
464,GRAV,13470587.3872,0.4155032471725,-3.601050705955E-17,-0.9095916949869
465,GRAV,13468745.99157,0.5498121287904,-3.460725788586E-17,-0.8352883472401
466,GRAV,14690195.62327,0.4901382849042,-3.53475191862E-17,-0.8716446877433
467,GRAV,14074722.80658,0.5564046963019,-3.45117499851E-17,-0.8309114356736
468,GRAV,14438582.58399,0.5218721136423,-3.497856762369E-17,-0.8530237376548
469,GRAV,14438582.58399,0.5218721136423,-3.497856762369E-17,-0.8530237376548
470,GRAV,15067469.38494,0.5185115364956,-3.501960096633E-17,-0.8550706324748
471,GRAV,14439758.18497,0.4454762882189,-3.57769486934E-17,-0.8952937376273
472,GRAV,15217571.17325,0.4857878013278,-3.539327780137E-17,-0.8740767769945
473,GRAV,14439758.18497,0.4454762882189,-3.57769486934E-17,-0.8952937376273
474,GRAV,14686483.09007,0.505844703947,-3.517171076461E-17,-0.8626245623032
475,GRAV,13011503.43526,0.5234887274049,-3.496015107288E-17,-0.8520326004796
476,GRAV,14654759.04478,0.5443845690207,-3.468174429359E-17,-0.8388357652199
477,GRAV,13212797.44125,0.4274550104391,-3.592341111435E-17,-0.9040366220737
478,GRAV,12887405.7106,0.4634656279136,-3.561845726157E-17,-0.8861148975966
479,GRAV,13772120.15008,0.409829957878,-3.604925629474E-17,-0.9121619404611
480,GRAV,13214352.53805,0.5383177862942,-3.476645271548E-17,-0.842741930225
481,GRAV,12896333.5427,0.5045962826128,-3.518854072302E-17,-0.8633554259825
482,GRAV,14730020.41333,0.4638864581028,-3.561207851703E-17,-0.8858946630321
483,GRAV,14565598.74739,0.4431728246976,-3.579619727687E-17,-0.8964361926259
484,GRAV,14565598.74739,0.4431728246976,-3.579619727687E-17,-0.8964361926259
485,GRAV,14588153.07565,0.4592418233517,-3.565535790742E-17,-0.8883112898554
486,GRAV,14690897.10705,0.4621592140465,-3.56282848397E-17,-0.886796967108
487,GRAV,14557193.44878,0.5086655967977,-3.513885714076E-17,-0.8609641750006
488,GRAV,14938801.30749,0.4253235270514,-3.593731956062E-17,-0.905041378798
489,GRAV,14557823.39538,0.4591867667858,-3.565589813726E-17,-0.8883397510011
490,GRAV,14686483.09007,0.505844703947,-3.517171076461E-17,-0.8626245623032
491,GRAV,12809043.01306,0.5129579882909,-3.509013234395E-17,-0.8584137127566
492,GRAV,13654368.77346,0.5610923696646,-3.44433251131E-17,-0.8277531955264
493,GRAV,13840903.96692,0.5630220040284,-3.441428916017E-17,-0.8264419053871
494,GRAV,13210738.04577,0.4174031952071,-3.599742145928E-17,-0.9087213943949
495,GRAV,14504216.51752,0.5563037584827,-3.451269406079E-17,-0.830979017965
496,GRAV,14326329.52988,0.5600253047055,-3.445828633058E-17,-0.8284755024076
497,GRAV,14765613.16969,0.4724832708079,-3.552933216704E-17,-0.8813396387356
498,GRAV,13068633.18395,0.5399442321472,-3.474466765705E-17,-0.8417007937331
499,GRAV,15261052.73737,0.5085268078466,-3.513969903041E-17,-0.8610461577066
500,GRAV,13211472.10905,0.5478747420282,-3.463494812496E-17,-0.8365603786025
501,GRAV,13656895.23183,0.4033891754031,-3.609204338606E-17,-0.9150285094835
502,GRAV,15305987.4385,0.4981317802571,-3.525903115087E-17,-0.8671013375021
503,GRAV,15033271.21995,0.5329312748143,-3.483589646459E-17,-0.8461585290741
504,GRAV,14907905.19122,0.5409221133319,-3.472900651743E-17,-0.8410726884809
505,GRAV,15306461.51129,0.4716502726785,-3.553691384701E-17,-0.8817856997492
506,GRAV,14660643.69867,0.4306146055048,-3.589728292079E-17,-0.9025359059483
507,GRAV,15174942.78939,0.4679078780658,-3.557336472076E-17,-0.8837772443574
508,GRAV,14778796.5774,0.4858374666913,-3.539324222916E-17,-0.8740491725063
509,GRAV,14571173.06935,0.4234472605848,-3.59517302456E-17,-0.905920756746
510,GRAV,13006178.30182,0.4435125101407,-3.579541149507E-17,-0.8962681816001
511,GRAV,12839320.90041,0.4841720508301,-3.541327931285E-17,-0.8749728139748
512,GRAV,13561205.82422,0.4532445229504,-3.571071632068E-17,-0.8913862251659
513,GRAV,13868446.2949,0.5244259947027,-3.494711641062E-17,-0.8514560329695
514,GRAV,13868446.2949,0.5244259947027,-3.494711641062E-17,-0.8514560329695
515,GRAV,13561205.82422,0.4532445229504,-3.571071632068E-17,-0.8913862251659
516,GRAV,14692079.48424,0.4800849927963,-3.545310311271E-17,-0.8772219785732
517,GRAV,14499381.33355,0.5126648000981,-3.509137738497E-17,-0.8585888438248
518,GRAV,13383361.64899,0.4729175287058,-3.552680261398E-17,-0.8811066967416
519,GRAV,13383361.64899,0.4729175287058,-3.552680261398E-17,-0.8811066967416
520,GRAV,13871102.56862,0.4429354789209,-3.579904076826E-17,-0.8965534906034
521,GRAV,13562093.5451,0.5141493321895,-3.507469181003E-17,-0.8577006845101
522,GRAV,13562093.5451,0.5141493321895,-3.507469181003E-17,-0.8577006845101
523,GRAV,13871102.56862,0.4429354789209,-3.579904076826E-17,-0.8965534906034
524,GRAV,14678088.5185,0.4761599568182,-3.549289850829E-17,-0.8793586842255
525,GRAV,15064187.36318,0.4338582804563,-3.587142126258E-17,-0.9009811277044
526,GRAV,14499381.33355,0.5126648000981,-3.509137738497E-17,-0.8585888438248
527,GRAV,14500010.39718,0.4550499837997,-3.569343779217E-17,-0.8904658961711
528,GRAV,14500010.39718,0.4550499837997,-3.569343779217E-17,-0.8904658961711
529,GRAV,14625445.49117,0.4526861873442,-3.571431570421E-17,-0.8916699029281
530,GRAV,13387817.30736,0.4952834241323,-3.529305424142E-17,-0.868731448596
531,GRAV,13387817.30736,0.4952834241323,-3.529305424142E-17,-0.868731448596
532,GRAV,12755285.78219,0.5007190353721,-3.523313839608E-17,-0.8656098703319
533,GRAV,13067862.53444,0.4259701571077,-3.593485627729E-17,-0.9047372133684
534,GRAV,14211054.98541,0.4441858875785,-3.578812644044E-17,-0.8959346501147
535,GRAV,14211054.98541,0.4441858875785,-3.578812644044E-17,-0.8959346501147
536,GRAV,13843423.34655,0.4012509528421,-3.610552570471E-17,-0.9159681614791
537,GRAV,12804572.03297,0.4547829807385,-3.569811024362E-17,-0.8906022908294
538,GRAV,12750825.23339,0.467385991787,-3.558150378036E-17,-0.88405335511
539,GRAV,15261176.37453,0.4610136223919,-3.563828406141E-17,-0.8873930583282
540,GRAV,14675086.28372,0.4737388393501,-3.551703907779E-17,-0.8806653803183
541,GRAV,14210507.11506,0.5230894761588,-3.496356082352E-17,-0.8522777715815
542,GRAV,14210507.11506,0.5230894761588,-3.496356082352E-17,-0.8522777715815
543,GRAV,14764086.09169,0.4564645298403,-3.568041314038E-17,-0.8897416102429
544,GRAV,15085025.53438,0.4821794275411,-3.543110306397E-17,-0.8760724853892
545,GRAV,14823824.15678,0.4646786264103,-3.560450832271E-17,-0.8854794035761
546,GRAV,15174942.78939,0.4679078780658,-3.557336472076E-17,-0.8837772443574
547,GRAV,15010610.59082,0.457712236375,-3.566883514722E-17,-0.8891003929099
548,GRAV,15010610.59082,0.457712236375,-3.566883514722E-17,-0.8891003929099
549,GRAV,14631330.12845,0.4534453090632,-3.570758695283E-17,-0.8912841026791
550,GRAV,14758159.19926,0.4557147453872,-3.568717270697E-17,-0.8901258735913
551,GRAV,14660643.69867,0.4306146055048,-3.589728292079E-17,-0.9025359059483
552,GRAV,14671288.53502,0.4944848255838,-3.53002243315E-17,-0.8691862615501
553,GRAV,14571173.06935,0.4234472605848,-3.59517302456E-17,-0.905920756746
554,GRAV,14699603.69461,0.4183705255606,-3.59885906271E-17,-0.9082764465416
555,GRAV,14679209.9852,0.4764386583226,-3.549009916189E-17,-0.8792077142836
556,GRAV,14676194.94642,0.4740181964227,-3.551426829785E-17,-0.8805150478329
557,GRAV,14865638.36623,0.482150858516,-3.543164329821E-17,-0.8760882088193
558,GRAV,14865638.36623,0.482150858516,-3.543164329821E-17,-0.8760882088193
559,GRAV,15098202.14081,0.450760627089,-3.57307018329E-17,-0.8926448661513
560,GRAV,14389324.04625,0.4102417718563,-3.604568592114E-17,-0.9119768026788
561,GRAV,14913846.78159,0.4341430996936,-3.586933358807E-17,-0.9008439204371
562,GRAV,14672396.85959,0.4942089852474,-3.53032560367E-17,-0.8693431307032
563,GRAV,15085025.53438,0.4821794275411,-3.543110306397E-17,-0.8760724853892
564,GRAV,14389324.04625,0.4102417718563,-3.604568592114E-17,-0.9119768026788
565,GRAV,14913846.78159,0.4341430996936,-3.586933358807E-17,-0.9008439204371
566,GRAV,14951943.42348,0.4495407266837,-3.574148860214E-17,-0.8932598362474
567,GRAV,14951943.42348,0.4495407266837,-3.574148860214E-17,-0.8932598362474
568,GRAV,14091976.53457,0.4051707920015,-3.607987741917E-17,-0.9142410127034
569,GRAV,14140687.45513,0.4144968952959,-3.601668305445E-17,-0.9100507259434
570,GRAV,14021219.71756,0.4136015284546,-3.60230712925E-17,-0.9104580032379
571,GRAV,14071263.57536,0.4229052798444,-3.595634941141E-17,-0.9061738929586
572,GRAV,14140687.45513,0.4144968952959,-3.601668305445E-17,-0.9100507259434
573,GRAV,14190866.34336,0.4237151317007,-3.595020333376E-17,-0.9057954996399
574,GRAV,13948895.70761,0.5355526359429,-3.480249334929E-17,-0.8445018496928
575,GRAV,14164126.13318,0.5289083960722,-3.488938376231E-17,-0.8486789195947
576,GRAV,14070685.1451,0.5347093548365,-3.481354375865E-17,-0.8450360381962
577,GRAV,13716262.59217,0.5327361274932,-3.48400604871E-17,-0.8462814061904
578,GRAV,13605668.22958,0.528991914198,-3.488902871598E-17,-0.848626864242
579,GRAV,13558610.41728,0.5209969324946,-3.499062787373E-17,-0.8535585488595
580,GRAV,13539251.40569,0.4398891456452,-3.582470110392E-17,-0.898052080641
581,GRAV,13653162.52704,0.4363297690009,-3.5853438232E-17,-0.8997868262448
582,GRAV,13784218.96808,0.4387083747688,-3.583402556635E-17,-0.8986294908958
583,GRAV,13362256.31793,0.4616075940956,-3.563510668282E-17,-0.8870842288494
584,GRAV,13490275.23418,0.4589424818994,-3.565949412761E-17,-0.8884659803887
585,GRAV,13362256.31793,0.4616075940956,-3.563510668282E-17,-0.8870842288494
586,GRAV,13490275.23418,0.4589424818994,-3.565949412761E-17,-0.8884659803887
587,GRAV,13367795.50046,0.4802036419673,-3.545357418767E-17,-0.877157033969
588,GRAV,13283136.32366,0.4866616609925,-3.538644185142E-17,-0.8735905377922
589,GRAV,13283136.32366,0.4866616609925,-3.538644185142E-17,-0.8735905377922
590,GRAV,13367795.50046,0.4802036419673,-3.545357418767E-17,-0.877157033969
591,GRAV,13367645.38035,0.5061048201267,-3.517036559853E-17,-0.8624719769619
592,GRAV,13491187.54446,0.5086463068459,-3.514044163651E-17,-0.860975571391
593,GRAV,13491187.54446,0.5086463068459,-3.514044163651E-17,-0.860975571391
594,GRAV,13367645.38035,0.5061048201267,-3.517036559853E-17,-0.8624719769619
595,GRAV,14775078.61557,0.4878014049204,-3.537244291314E-17,-0.8729546319012
596,GRAV,14691924.16849,0.4840460783682,-3.541213974262E-17,-0.8750425098339
597,GRAV,14732571.91477,0.4663148219334,-3.558909738397E-17,-0.8846188370396
598,GRAV,14832692.47495,0.4663420100068,-3.558872384482E-17,-0.8846045046815
599,GRAV,14779329.19108,0.4763974056655,-3.549039817615E-17,-0.8792300676587
600,GRAV,14692079.48424,0.4800849927963,-3.545310311271E-17,-0.8772219785732
601,GRAV,14690938.70834,0.4798074444291,-3.545594378452E-17,-0.8773738178624
602,GRAV,14778207.9377,0.4761205823014,-3.549317806795E-17,-0.8793800038146
603,GRAV,10737513.73968,0.4989422328161,-3.525688715472E-17,-0.8666352452517
604,GRAV,5910134.514373,0.497589801212,-3.529106650828E-17,-0.8674124680507
605,GRAV,5910134.514373,0.497589801212,-3.529106650828E-17,-0.8674124680507
606,GRAV,5915787.234554,0.5241557273054,-3.497477694042E-17,-0.8516224360202
607,GRAV,8327209.197487,0.5126674609328,-3.510412850814E-17,-0.8585872550304
608,GRAV,10739459.08854,0.4616127575306,-3.563962907693E-17,-0.8870815419594
609,GRAV,8322692.370347,0.4841140778836,-3.54244546788E-17,-0.8750048911834
610,GRAV,10736346.35281,0.4766465479456,-3.54942654247E-17,-0.8790950280439
611,GRAV,8327209.186709,0.4550355111619,-3.570635118061E-17,-0.8904732918969
612,GRAV,5912254.908302,0.4568250264036,-3.57025145887E-17,-0.8895565722602
613,GRAV,10736346.35281,0.4766465479456,-3.54942654247E-17,-0.8790950280439
614,GRAV,8322692.370347,0.4841140778836,-3.54244546788E-17,-0.8750048911834
615,GRAV,2193882.615199,0.5726907751345,-3.436241137074E-17,-0.8197714779595
616,GRAV,2069863.844383,0.7003731944205,-3.178369308732E-17,-0.7137768478574
617,GRAV,2195366.550763,0.2713731829474,-3.666116100054E-17,-0.9624742051489
618,GRAV,2068067.208063,0.1649391943881,-3.653944033223E-17,-0.9863037372709
619,GRAV,4995640.370938,0.3741315976082,-3.629358337379E-17,-0.9273756238284
620,GRAV,2083243.42642,0.3775466298613,-3.634573025773E-17,-0.9259905735375
621,GRAV,2216153.73213,0.7701804655444,-2.972496339164E-17,-0.637826034663
622,GRAV,1804006.248169,0.1536607738194,-3.651853604352E-17,-0.9881236595635
623,GRAV,2433265.066521,0.1538279883214,-3.648329596471E-17,-0.9880976419408
624,GRAV,3970285.987842,0.2118182185427,-3.659134242707E-17,-0.9773090822731
625,GRAV,2788146.228857,0.1993156865827,-3.659680300125E-17,-0.9799353331124
626,GRAV,4781077.378553,0.6297281625992,-3.330124234772E-17,-0.7768155773602
627,GRAV,3901325.799595,0.1195237470764,-3.6298830822E-17,-0.9928313421145
628,GRAV,2434479.976708,0.727358069584,-3.10380206189E-17,-0.6862581428377
629,GRAV,1821384.017743,0.3967429079296,-3.625300971077E-17,-0.917929771283
630,GRAV,3188188.79259,0.3925302708911,-3.621971510252E-17,-0.9197390860642
631,GRAV,3642032.744315,0.3740052182464,-3.631283719468E-17,-0.9274265991034
632,GRAV,2942058.162688,0.3628550663066,-3.638373953642E-17,-0.9318455885262
633,GRAV,3854272.395612,0.3344076026254,-3.647837208784E-17,-0.9424285412202
634,GRAV,3941275.657236,0.4575219977873,-3.571735082964E-17,-0.8891983027091
635,GRAV,3614652.637512,0.3056941293632,-3.656378190675E-17,-0.9521297701852
636,GRAV,4195737.870885,0.4736092373705,-3.556088150062E-17,-0.8807350851858
637,GRAV,3156874.871831,0.3149632121487,-3.655137534745E-17,-0.9491038799799
638,GRAV,4138196.104009,0.418051491358,-3.603429177616E-17,-0.9084233322484
639,GRAV,5169707.952472,0.4072957316713,-3.60964744797E-17,-0.9132963303125
640,GRAV,4272811.62507,0.1075317830387,-3.623222214523E-17,-0.9942016473717
641,GRAV,2922513.358648,0.07795404942423,-3.608661367326E-17,-0.9969569530217
642,GRAV,2586136.852902,0.01794365255221,-3.565159428099E-17,-0.999838999706
643,GRAV,4860661.074687,0.6868774742024,-3.205108149288E-17,-0.7267732352208
644,GRAV,4964715.759674,0.4630397613003,-3.565341098709E-17,-0.8863375087713
645,GRAV,4335867.504203,0.1923815427339,-3.655046856579E-17,-0.9813202036111
646,GRAV,1665745.306145,0.2809330577435,-3.668747198995E-17,-0.9597273660091
647,GRAV,5110552.378173,0.3468111415897,-3.641666622634E-17,-0.9379349828582
648,GRAV,4017450.362483,0.2559627937436,-3.661784099563E-17,-0.96668663393
649,GRAV,2375381.882854,0.2265968426669,-3.665109348722E-17,-0.9739886400228
650,GRAV,4751879.731486,0.5990954041682,-3.386638797405E-17,-0.8006776484357
651,GRAV,3788166.496513,0.2229041195991,-3.660825014964E-17,-0.9748403733257
652,GRAV,2737776.39681,0.2628669913597,-3.664435571397E-17,-0.9648320811693
653,GRAV,2967418.461001,0.2178424759515,-3.66207510168E-17,-0.9759839423225
654,GRAV,3715827.979689,0.1264106125073,-3.633473307089E-17,-0.9919780022992
655,GRAV,2285534.779824,0.5032182822662,-3.529442934003E-17,-0.864159337387
656,GRAV,1930532.502262,0.2755008086235,-3.667295698685E-17,-0.9613008397207
657,GRAV,4978838.516608,0.5516908969337,-3.46121970615E-17,-0.8340486522023
658,GRAV,3432399.926092,0.06365249940594,-3.59791996318E-17,-0.9979721235182
659,GRAV,4847278.843254,0.352465004904,-3.639628227251E-17,-0.9358249944931
660,GRAV,4412603.570333,0.6412001481849,-3.307618856903E-17,-0.7673736833953
661,GRAV,3730566.692552,0.8335302508757,-2.723663890953E-17,-0.5524738191762
662,GRAV,4965666.006644,0.624586424766,-3.339887753049E-17,-0.780955695285
663,GRAV,2258231.897661,0.125583101407,-3.637433131677E-17,-0.992083103697
664,GRAV,3094009.8999,0.1029506258672,-3.622983393781E-17,-0.994686467503
665,GRAV,5125623.221081,0.4798229300127,-3.548755045847E-17,-0.8773653491186
666,GRAV,4869803.525712,0.4919071572934,-3.536271240193E-17,-0.870647660425
667,GRAV,4379096.208553,0.233262697223,-3.660806836612E-17,-0.9724137566305
668,GRAV,3879980.896046,0.07189781912582,-3.602628581411E-17,-0.9974120029381
669,GRAV,4095560.137925,0.5658670744243,-3.441440570032E-17,-0.824496485185
670,GRAV,2797338.519883,0.4997404210836,-3.531399868572E-17,-0.8661752198806
671,GRAV,3834455.680863,0.5564343182574,-3.455876591548E-17,-0.8308915991063
672,GRAV,3055150.461005,0.5177692721644,-3.509399031293E-17,-0.8555202982994
673,GRAV,1930532.502262,0.2755008086235,-3.667295698685E-17,-0.9613008397207
674,GRAV,3609465.809739,0.007680612453245,-3.553508797502E-17,-0.9999705036612
675,GRAV,5183272.217576,0.5790624204757,-3.41960060469E-17,-0.81528321042
676,GRAV,5229326.916526,0.5374841303577,-3.480656190275E-17,-0.8432738639455
677,GRAV,4498710.421019,0.7018148084219,-3.168146472697E-17,-0.7123594420513
678,GRAV,4380950.850182,0.6084095416228,-3.370622016741E-17,-0.793623229034
679,GRAV,5324424.019928,0.425610493519,-3.596539113577E-17,-0.9049064635676
680,GRAV,5279198.978826,0.380544393659,-3.625698175456E-17,-0.9247626530385
681,GRAV,4253331.393441,0.06397905876647,-3.596738212156E-17,-0.9979512413136
682,GRAV,5042337.163737,0.6801185631594,-3.221151090985E-17,-0.7331021347984
683,GRAV,2422175.931183,-0.01829089419962,-3.532693326953E-17,-0.9998327076013
684,GRAV,3005007.400141,0.02125518434754,-3.566606746113E-17,-0.9997740830499
685,GRAV,4910703.75293,0.71326403357,-3.137559621591E-17,-0.7008954404299
686,GRAV,4519220.926532,0.1838197070474,-3.652796333772E-17,-0.9829599764492
687,GRAV,3352393.39381,-0.01079152440423,-3.537065016156E-17,-0.9999417698051
688,GRAV,4825650.866125,0.2242104025843,-3.659538512855E-17,-0.9745407612681
689,GRAV,3682273.318084,0.7926576907281,-2.888861626469E-17,-0.6096669462334
690,GRAV,3472349.452688,0.8425477706972,-2.683367193715E-17,-0.5386216242347
691,GRAV,4552733.323867,0.7294983300272,-3.092923291949E-17,-0.6839825922401
692,GRAV,4458758.790532,0.1022804913444,-3.620142173393E-17,-0.9947555986725
693,GRAV,2679008.952087,-0.04387630855612,-3.505516018816E-17,-0.9990369710614
694,GRAV,3932360.629393,0.6079767647002,-3.37205155327E-17,-0.7939548183522
695,GRAV,2881779.32548,0.5743341537741,-3.430949043732E-17,-0.8186209622338
696,GRAV,3406346.376256,0.5938750403597,-3.397681596727E-17,-0.8045572922035
697,GRAV,3388459.65553,0.7508144397926,-3.031207757387E-17,-0.660513192146
698,GRAV,3159071.50436,0.8074975384404,-2.833470436092E-17,-0.5898709396239
699,GRAV,3124447.462149,0.7553926145058,-3.017462806082E-17,-0.6552724608513
700,GRAV,4191270.325139,0.8010364816821,-2.85657215281E-17,-0.5986155318853
701,GRAV,4399596.447768,0.7776305892632,-2.941474602248E-17,-0.6287214539382
702,GRAV,4847278.843254,0.352465004904,-3.639628227251E-17,-0.9358249944931
703,GRAV,4318553.323882,0.7100880451061,-3.146745471962E-17,-0.7041128944974
704,GRAV,4228779.685435,0.6476226623439,-3.294573465383E-17,-0.7619612110984
705,GRAV,4156798.166399,0.7617888533575,-2.994957631048E-17,-0.6478253953808
706,GRAV,2540763.143621,0.6208677274803,-3.351773253141E-17,-0.7839153429889
707,GRAV,3516191.886989,0.6484587091333,-3.294017478705E-17,-0.7612498292606
708,GRAV,3251753.892351,0.6446322264195,-3.30257968558E-17,-0.7644928336233
709,GRAV,2449067.422905,0.8364261151467,-2.714262795084E-17,-0.5480796966689
710,GRAV,1846459.090881,0.7505050159951,-3.038332464765E-17,-0.6608647524011
711,GRAV,2703346.830937,0.8519521776836,-2.64090398206E-17,-0.5236196013713
712,GRAV,2649586.41039,0.7972430282549,-2.874428882309E-17,-0.6036584745525
713,GRAV,4818579.735478,0.2816613105435,-3.658834353076E-17,-0.9595138905419
714,GRAV,5083339.856134,0.2795618366354,-3.658818948003E-17,-0.9601276891628
715,GRAV,4553845.350244,0.28400330723,-3.65883087197E-17,-0.9588233004482
716,GRAV,4818579.735478,0.2816613105435,-3.658834353076E-17,-0.9595138905419
717,GRAV,4779583.901974,0.4314785078796,-3.592582828749E-17,-0.9021232162172
718,GRAV,4624295.810662,0.4112533143159,-3.607549259453E-17,-0.9115210976517
719,GRAV,4679075.200354,0.4613984701021,-3.567177562251E-17,-0.8871930183379
720,GRAV,4520335.629029,0.4420882764337,-3.58433914402E-17,-0.8969715468396
721,GRAV,4624295.810662,0.4112533143159,-3.607549259453E-17,-0.9115210976517
722,GRAV,4471466.910232,0.3894082773443,-3.621562928855E-17,-0.9210652493367
723,GRAV,2069863.844383,0.7003731944205,-3.178369308732E-17,-0.7137768478574
724,GRAV,2193882.615199,0.5726907751345,-3.436241137074E-17,-0.8197714779595
725,GRAV,1709631.649428,0.6601513545275,-3.276401359919E-17,-0.7511326042155
726,GRAV,1857854.938285,0.5034595611227,-3.53168447221E-17,-0.8640187904867

***********************************************************
** MbDAssembly gravity
*DLOAD
Eall,GRAV,9810,0,0,-1

***********************************************************
** Outputs --> frd file
*NODE FILE
U
*EL FILE
S, E
*OUTPUT, FREQUENCY=1
***********************************************************
*END STEP

***********************************************************
** CalculiX Input file
**   written by    --> FreeCAD 26.3.0
**   written on    --> Sat Sep  5 11:50:25 2026
**   file name     --> RealisticPendulum.FCStd
**   analysis name --> FEMPart002
**
**
***********************************************************
**  About units:
**  See ccx manual, ccx does not know about any unit.
**  Golden rule: The user must make sure that the numbers they provide have consistent units.
**  The user is the FreeCAD calculix writer module ;-)
**
**  The unit system which is used at Guido Dhondt's company: mm, N, s, K
**  Since Length and Mass are connected by Force, if Length is mm the Mass is in t to get N
**  The following units are used to write to inp file:
**
**  Length: mm (this includes the mesh geometry)
**  Mass: t
**  TimeSpan: s
**  Temperature: K
**
**  This leads to:
**  Force: N
**  Pressure: N/mm^2 == MPa (Young's Modulus has unit Pressure)
**  Density: t/mm^3
**  Gravity: mm/s^2
**  Thermal conductivity: t*mm/K/s^3 == as W/m/K == kW/mm/K
**  Specific Heat: mm^2/s^2/K = J/kg/K == kJ/t/K
**
