** written by FreeCAD inp file writer for CalculiX,Abaqus meshes
** highest dimension mesh elements only.

** Nodes
*Node, NSET=Nall
1, -5e-15, 5, 212
2, -5e-15, -5, 212
3, -5, -3, 172.635083269
4, -5, 3, 172.635083269
5, 5, 3, 172.635083269
6, 5, -3, 172.635083269
7, -2e-15, -5, 200
8, -2e-15, 5, 200
9, -5, -3, 75.54995462791
10, -5, 3, 75.54995462791
11, 5, 3, 75.54995462791
12, -6.86e-15, 3, 76
13, 5, -3, 75.54995462791
14, -6.86e-15, -3, 76
15, -7e-15, 5, 76
16, -7e-15, -5, 76
17, -4.9e-15, 0, 212
18, 10, -5, 209.3205080757
19, 17.32050807569, -5, 202
20, 20, -5, 192
21, 17.32050807569, -5, 182
22, 10, -5, 174.6794919243
23, -1.130139009627e-13, -5, 172
24, -10, -5, 174.6794919243
25, -17.32050807569, -5, 182
26, -20, -5, 192
27, -17.32050807569, -5, 202
28, -10, -5, 209.3205080757
29, 5.17638090205, -5, 211.3185165258
30, 14.14213562373, -5, 206.1421356237
31, 19.31851652578, -5, 197.1763809021
32, 19.31851652578, -5, 186.8236190979
33, 14.14213562373, -5, 177.8578643763
34, 5.17638090205, -5, 172.6814834742
35, -5.176380902051, -5, 172.6814834742
36, -14.14213562373, -5, 177.8578643763
37, -19.31851652578, -5, 186.8236190979
38, -19.31851652578, -5, 197.1763809021
39, -14.14213562373, -5, 206.1421356237
40, -5.17638090205, -5, 211.3185165258
41, 10, 5, 209.3205080757
42, 17.32050807569, 5, 202
43, 20, 5, 192
44, 17.32050807569, 5, 182
45, 10, 5, 174.6794919243
46, -1.130139009627e-13, 5, 172
47, -10, 5, 174.6794919243
48, -17.32050807569, 5, 182
49, -20, 5, 192
50, -17.32050807569, 5, 202
51, -10, 5, 209.3205080757
52, 5.17638090205, 5, 211.3185165258
53, 14.14213562373, 5, 206.1421356237
54, 19.31851652578, 5, 197.1763809021
55, 19.31851652578, 5, 186.8236190979
56, 14.14213562373, 5, 177.8578643763
57, 5.17638090205, 5, 172.6814834742
58, -5.176380902051, 5, 172.6814834742
59, -14.14213562373, 5, 177.8578643763
60, -19.31851652578, 5, 186.8236190979
61, -19.31851652578, 5, 197.1763809021
62, -14.14213562373, 5, 206.1421356237
63, -5.17638090205, 5, 211.3185165258
64, -5, 0, 172.635083269
65, 6.46217829773e-14, 3, 172
66, 5, 0, 172.635083269
67, 6.46217829773e-14, -3, 172
68, 4, -5, 198.9282032303
69, 6.928203230276, -5, 196
70, 8, -5, 192
71, 6.928203230275, -5, 188
72, 4, -5, 185.0717967697
73, -4.520556038509e-14, -5, 184
74, -4, -5, 185.0717967697
75, -6.928203230276, -5, 188
76, -8, -5, 192
77, -6.928203230275, -5, 196
78, -4, -5, 198.9282032303
79, 2.07055236082, -5, 199.7274066103
80, 5.656854249492, -5, 197.6568542495
81, 7.727406610313, -5, 194.0705523608
82, 7.727406610313, -5, 189.9294476392
83, 5.656854249492, -5, 186.3431457505
84, 2.07055236082, -5, 184.2725933897
85, -2.07055236082, -5, 184.2725933897
86, -5.656854249492, -5, 186.3431457505
87, -7.727406610313, -5, 189.9294476392
88, -7.727406610313, -5, 194.0705523608
89, -5.656854249492, -5, 197.6568542495
90, -2.07055236082, -5, 199.7274066103
91, 4, 5, 198.9282032303
92, 6.928203230276, 5, 196
93, 8, 5, 192
94, 6.928203230275, 5, 188
95, 4, 5, 185.0717967697
96, -4.520556038509e-14, 5, 184
97, -4, 5, 185.0717967697
98, -6.928203230276, 5, 188
99, -8, 5, 192
100, -6.928203230275, 5, 196
101, -4, 5, 198.9282032303
102, 2.07055236082, 5, 199.7274066103
103, 5.656854249492, 5, 197.6568542495
104, 7.727406610313, 5, 194.0705523608
105, 7.727406610313, 5, 189.9294476392
106, 5.656854249492, 5, 186.3431457505
107, 2.07055236082, 5, 184.2725933897
108, -2.07055236082, 5, 184.2725933897
109, -5.656854249492, 5, 186.3431457505
110, -7.727406610313, 5, 189.9294476392
111, -7.727406610313, 5, 194.0705523608
112, -5.656854249492, 5, 197.6568542495
113, -2.07055236082, 5, 199.7274066103
114, -5, -3, 142.5149020532
115, -5, -3, 109.0324283406
116, -5, -3, 157.5749926611
117, -5, 3, 142.5149020532
118, -5, 3, 109.0324283406
119, -5, 3, 157.5749926611
120, -5, 0, 75.54995462791
121, 5, 3, 142.5149020532
122, 5, 3, 109.0324283406
123, 5, 3, 157.5749926611
124, -2.510106613121, 3, 75.88726169402
125, 2.510106613121, 3, 75.88726169402
126, 5, -3, 142.5149020532
127, 5, -3, 109.0324283406
128, 5, -3, 157.5749926611
129, 5, 0, 75.54995462791
130, -2.510106613121, -3, 75.88726169402
131, 2.510106613121, -3, 75.88726169402
132, -1.96e-15, -1.666666666667, 200
133, -1.96e-15, 1.666666666667, 200
134, -1.96e-15, -3.333333333333, 200
135, -1.96e-15, 8.881784197001e-16, 200
136, -1.96e-15, 3.333333333333, 200
137, -6.86e-15, 4, 76
138, -6.86e-15, -4, 76
139, 14, -5, 72.24871130596
140, 24.24871130596, -5, 62
141, 28, -5, 48
142, 24.24871130596, -5, 34
143, 14, -5, 23.75128869404
144, -1.706539592236e-13, -5, 20
145, -14, -5, 23.75128869404
146, -24.24871130596, -5, 34
147, -28, -5, 48
148, -24.24871130596, -5, 62
149, -14, -5, 72.24871130596
150, 7.246933262871, -5, 75.04592313609
151, 19.79898987322, -5, 67.79898987322
152, 27.04592313609, -5, 55.24693326287
153, 27.04592313609, -5, 40.75306673713
154, 19.79898987322, -5, 28.20101012678
155, 7.24693326287, -5, 20.95407686391
156, -7.246933262871, -5, 20.95407686391
157, -19.79898987322, -5, 28.20101012678
158, -27.04592313609, -5, 40.75306673713
159, -27.04592313609, -5, 55.24693326287
160, -19.79898987322, -5, 67.79898987322
161, -7.24693326287, -5, 75.04592313609
162, 14, 5, 72.24871130596
163, 24.24871130596, 5, 62
164, 28, 5, 48
165, 24.24871130596, 5, 34
166, 14, 5, 23.75128869404
167, -1.706539592236e-13, 5, 20
168, -14, 5, 23.75128869404
169, -24.24871130596, 5, 34
170, -28, 5, 48
171, -24.24871130596, 5, 62
172, -14, 5, 72.24871130596
173, 7.246933262871, 5, 75.04592313609
174, 19.79898987322, 5, 67.79898987322
175, 27.04592313609, 5, 55.24693326287
176, 27.04592313609, 5, 40.75306673713
177, 19.79898987322, 5, 28.20101012678
178, 7.24693326287, 5, 20.95407686391
179, -7.246933262871, 5, 20.95407686391
180, -19.79898987322, 5, 28.20101012678
181, -27.04592313609, 5, 40.75306673713
182, -27.04592313609, 5, 55.24693326287
183, -19.79898987322, 5, 67.79898987322
184, -7.24693326287, 5, 75.04592313609
185, -9.999999998477, 2.6645352591e-15, 209.3205080766
186, 9.999999999999, 0, 209.3205080757
187, -5.176380901201, 2.5, 211.318516526
188, -5.176380901201, -2.5, 211.318516526
189, 5.17638090205, 2.5, 211.3185165258
190, 5.17638090205, -2.5, 211.3185165258
191, 10, 2.5, 209.3205080757
192, -9.999999999238, 2.5, 209.3205080761
193, 10, -2.5, 209.3205080757
194, -9.999999999238, -2.5, 209.3205080761
195, -7.569339580671, -4, 173.4877041318
196, -7.569339580671, -1, 173.4877041318
197, 2.520085849655, -4, 172.1594060747
198, -2.520085849655, -4, 172.1594060747
199, -2.520085849655, 4, 172.1594060747
200, 2.520085849655, 4, 172.1594060747
201, -10, 0, 174.6794919243
202, -7.569339580671, 4, 173.4877041318
203, 7.569339580671, -1, 173.4877041318
204, 7.569339580671, -4, 173.4877041318
205, 7.569339580671, 4, 173.4877041318
206, 10, 0, 174.6794919243
207, 14.14213562373, -2.5, 206.1421356237
208, 20, 0, 192
209, 19.31851652578, 0, 197.1763809021
210, 17.32050807569, 0, 202
211, 14.14213562373, 2.5, 206.1421356237
212, 17.32050807569, 0, 182
213, 19.31851652578, 0, 186.8236190979
214, 14.14213562373, 0, 177.8578643763
215, -14.14213562373, 0, 177.8578643763
216, -19.31851652578, 0, 186.8236190979
217, -17.32050807569, 0, 182
218, -19.31851652578, 0, 197.1763809021
219, -20, 0, 192
220, -14.14213562311, -2.5, 206.1421356244
221, -17.32050807569, 0, 202
222, -14.14213562311, 2.5, 206.1421356244
223, 3.416237101988, -5, 204.7495704353
224, 9.333333333333, -5, 182.6666666667
225, -3.472079033996, -5, 204.5411655079
226, -9.286798389993, -5, 201.0901942513
227, -12.74957043532, -5, 188.583762898
228, -12.38084668855, -5, 195.2789928582
229, -9.124928405887, -5, 182.7225085987
230, 3.26367410655, -5, 179.4029925601
231, 12.59700743988, -5, 188.7363258935
232, -3.31020904989, -5, 179.6461316421
233, 9.277491401325, -5, 201.1249284059
234, 12.35386835786, -5, 195.3102090499
235, 1.708118550994, -5, 208.3747852177
236, 6.708118550994, -5, 207.0350392555
237, -6.736039516998, -5, 206.9308367918
238, -1.736039516998, -5, 208.2705827539
239, -0.02792096600395, -5, 204.6453679716
240, 3.708118550994, -5, 201.8388868328
241, 1.708118550994, -5, 202.3747852177
242, -1.736039516998, -5, 202.2705827539
243, -3.736039516998, -5, 201.7346843691
244, 9.638745700663, -5, 205.2227182408
245, 13.29899973851, -5, 201.5624642029
246, 6.346864251657, -5, 202.9372494206
247, 14.83718821678, -5, 198.6551045249
248, 16.17693417893, -5, 193.6551045249
249, 10.81567987959, -5, 198.2175687279
250, 16.29850371994, -5, 190.3681629467
251, 14.95875775779, -5, 185.3681629467
252, 12.47543789887, -5, 192.0232674717
253, 13.32692070451, -5, 182.3333333333
254, 9.666666666667, -5, 178.6730792955
255, 10.96517038661, -5, 185.7014962801
256, 6.631837053275, -5, 177.0412422422
257, 1.631837053275, -5, 175.7014962801
258, 6.298503719941, -5, 181.0348296134
259, -1.655104524945, -5, 175.8230658211
260, -6.655104524945, -5, 177.1628117832
261, -0.02326747167005, -5, 179.5245621011
262, -9.562464202944, -5, 178.7010002615
263, -13.22271824079, -5, 182.3612542993
264, -6.217568727888, -5, 181.1843201204
265, -15.03503925551, -5, 185.291881449
266, -16.37478521766, -5, 190.291881449
267, -10.9372494206, -5, 185.6531357483
268, -16.19042334427, -5, 193.6394964291
269, -14.85067738212, -5, 198.6394964291
270, -12.56520856193, -5, 191.9313778781
271, -13.30365323284, -5, 201.5450971257
272, -9.643399194997, -5, 205.2053511635
273, -10.83382253927, -5, 198.1845935548
274, -6.379438711995, -5, 202.8156798796
275, 8.1028473158, -5, 198.5624642029
276, 6.638745700663, -5, 200.0265658181
277, 10.17693417893, -5, 193.6551045249
278, 9.641035794069, -5, 195.6551045249
279, 9.762605335079, -5, 188.3681629467
280, 10.29850371994, -5, 190.3681629467
281, 6.666666666667, -5, 183.8692317182
282, 8.130768281804, -5, 185.3333333333
283, 1.631837053275, -5, 181.7014962801
284, 3.631837053275, -5, 182.2373946649
285, -3.655104524945, -5, 182.3589642059
286, -1.655104524945, -5, 181.8230658211
287, -8.026565818081, -5, 185.3612542993
288, -6.562464202943, -5, 183.8971526842
289, -10.37478521766, -5, 190.291881449
290, -9.838886832798, -5, 188.291881449
291, -9.654524959411, -5, 195.6394964291
292, -10.19042334427, -5, 193.6394964291
293, -6.643399194997, -5, 200.0091987408
294, -8.107500810134, -5, 198.5450971257
295, 3.416237101988, 5, 204.7495704353
296, 9.333333333333, 5, 182.6666666667
297, -3.472079033996, 5, 204.5411655079
298, -9.286798389993, 5, 201.0901942513
299, -12.74957043532, 5, 188.583762898
300, -12.38084668855, 5, 195.2789928582
301, -9.124928405887, 5, 182.7225085987
302, 3.26367410655, 5, 179.4029925601
303, 12.59700743988, 5, 188.7363258935
304, -3.31020904989, 5, 179.6461316421
305, 9.277491401325, 5, 201.1249284059
306, 12.35386835786, 5, 195.3102090499
307, 6.708118550994, 5, 207.0350392555
308, 1.708118550994, 5, 208.3747852177
309, -1.736039516998, 5, 208.2705827539
310, -6.736039516998, 5, 206.9308367918
311, -0.02792096600395, 5, 204.6453679716
312, 1.708118550994, 5, 202.3747852177
313, 3.708118550994, 5, 201.8388868328
314, -3.736039516998, 5, 201.7346843691
315, -1.736039516998, 5, 202.2705827539
316, 13.29899973851, 5, 201.5624642029
317, 9.638745700663, 5, 205.2227182408
318, 6.346864251657, 5, 202.9372494206
319, 16.17693417893, 5, 193.6551045249
320, 14.83718821678, 5, 198.6551045249
321, 10.81567987959, 5, 198.2175687279
322, 14.95875775779, 5, 185.3681629467
323, 16.29850371994, 5, 190.3681629467
324, 12.47543789887, 5, 192.0232674717
325, 9.666666666667, 5, 178.6730792955
326, 13.32692070451, 5, 182.3333333333
327, 10.96517038661, 5, 185.7014962801
328, 1.631837053275, 5, 175.7014962801
329, 6.631837053275, 5, 177.0412422422
330, 6.298503719941, 5, 181.0348296134
331, -6.655104524945, 5, 177.1628117832
332, -1.655104524945, 5, 175.8230658211
333, -0.02326747167005, 5, 179.5245621011
334, -13.22271824079, 5, 182.3612542993
335, -9.562464202944, 5, 178.7010002615
336, -6.217568727888, 5, 181.1843201204
337, -16.37478521766, 5, 190.291881449
338, -15.03503925551, 5, 185.291881449
339, -10.9372494206, 5, 185.6531357483
340, -14.85067738212, 5, 198.6394964291
341, -16.19042334427, 5, 193.6394964291
342, -12.56520856193, 5, 191.9313778781
343, -9.643399194997, 5, 205.2053511635
344, -13.30365323284, 5, 201.5450971257
345, -10.83382253927, 5, 198.1845935548
346, -6.379438711995, 5, 202.8156798796
347, 6.638745700663, 5, 200.0265658181
348, 8.1028473158, 5, 198.5624642029
349, 9.641035794069, 5, 195.6551045249
350, 10.17693417893, 5, 193.6551045249
351, 10.29850371994, 5, 190.3681629467
352, 9.762605335079, 5, 188.3681629467
353, 8.130768281804, 5, 185.3333333333
354, 6.666666666667, 5, 183.8692317182
355, 3.631837053275, 5, 182.2373946649
356, 1.631837053275, 5, 181.7014962801
357, -1.655104524945, 5, 181.8230658211
358, -3.655104524945, 5, 182.3589642059
359, -6.562464202943, 5, 183.8971526842
360, -8.026565818081, 5, 185.3612542993
361, -9.838886832798, 5, 188.291881449
362, -10.37478521766, 5, 190.291881449
363, -10.19042334427, 5, 193.6394964291
364, -9.654524959411, 5, 195.6394964291
365, -8.107500810134, 5, 198.5450971257
366, -6.643399194997, 5, 200.0091987408
367, -5, 0, 157.5749926611
368, -5, 0, 142.5149020532
369, -5, 0, 109.0324283406
370, 1.68753899743e-14, 3, 157.5749926611
371, 0, 3, 142.5149020532
372, -2.5, 3, 109.2574510266
373, 2.5, 3, 109.2574510266
374, 5, 0, 157.5749926611
375, 5, 0, 142.5149020532
376, 5, 0, 109.0324283406
377, 1.68753899743e-14, -3, 157.5749926611
378, 0, -3, 142.5149020532
379, -2.5, -3, 109.2574510266
380, 2.5, -3, 109.2574510266
381, -7.751173309934, 0.0004090689846006, 193.9797253141
382, -5.900629000126, 0.008584387974766, 197.4020900958
383, 5.900629000126, 0.008584387974766, 197.4020900958
384, 7.751173309934, 0.0004090689846006, 193.9797253141
385, -7.727406610313, 0, 189.9294476392
386, -5.656854249492, 0, 186.3431457505
387, -2.07055236082, 3.333333333333, 199.7274066103
388, -3.330387815149, 0.3820363689807, 199.2738240975
389, 3.330387815149, 0.3820363689807, 199.2738240975
390, 2.07055236082, 3.333333333333, 199.7274066103
391, 1.816621978181, -2.083765626184, 199.7910130656
392, -1.816621978181, -2.083765626184, 199.7910130656
393, -2.07055236082, 0, 184.2725933897
394, 2.07055236082, 0, 184.2725933897
395, 5.656854249492, -8.881784197001e-16, 186.3431457505
396, 7.727406610313, 0, 189.9294476392
397, 0.914301775996, -3.541882813092, 199.9475815354
398, 2.940133162333, -3.541882813092, 199.440135549
399, -0.914301775996, -3.541882813092, 199.9475815354
400, -2.940133162333, -3.541882813092, 199.440135549
401, 0.914301775996, -1.875216146425, 199.9475815354
402, -0.914301775996, -1.875216146425, 199.9475815354
403, 1.04420953776, 4.166666666667, 199.931558891
404, 3.061467458921, 4.166666666667, 199.3910362601
405, -1.04420953776, 4.166666666667, 199.931558891
406, -3.061467458921, 4.166666666667, 199.3910362601
407, -1.04420953776, 2.5, 199.931558891
408, 1.04420953776, 2.5, 199.931558891
409, 6.452611739297, -2.495707806013, 196.7290381413
410, 5.008779190018, -2.495707806013, 198.237958883
411, 4.709433607583, 0.1953103784777, 198.4669339795
412, 3.669265570394, -2.30898181551, 199.1089021778
413, 2.586464490448, -0.8508646286017, 199.570350153
414, 7.937549574002, -2.499795465508, 192.9976506203
415, 7.408873150076, -2.499795465508, 195.018045501
416, 7.037120984672, 0.004496728479683, 195.8051186903
417, 7.39103626009, -2.5, 188.9385325411
418, 7.93155889099, -2.5, 190.9557904622
419, 7.999862273683, 0.0002045344923003, 191.9530574595
420, 4.87009143207, -2.5, 185.6531732777
421, 6.34682672233, -2.5, 187.1299085679
422, 6.928203230275, 0, 188
423, 1.04420953776, -2.5, 184.068441109
424, 3.061467458921, -2.5, 184.6089637399
425, 4, 0, 185.0717967697
426, -1.04420953776, -2.5, 184.068441109
427, -3.061467458921, -2.5, 184.6089637399
428, -4.165284670629e-14, 0, 184
429, -4.87009143207, -2.5, 185.6531732777
430, -6.34682672233, -2.5, 187.1299085679
431, -4, 0, 185.0717967697
432, -7.39103626009, -2.5, 188.9385325411
433, -7.93155889099, -2.5, 190.9557904622
434, -6.928203230276, 0, 188
435, -7.937549574002, -2.499795465508, 192.9976506203
436, -7.408873150076, -2.499795465508, 195.018045501
437, -7.999862273683, 0.0002045344923003, 191.9530574595
438, -6.452611739297, -2.495707806013, 196.7290381413
439, -5.008779190018, -2.495707806013, 198.237958883
440, -7.037120984672, 0.004496728479683, 195.8051186903
441, -4.709433607583, 0.1953103784777, 198.4669339795
442, -3.669265570394, -2.30898181551, 199.1089021778
443, -2.586464490448, -0.8508646286017, 199.570350153
444, 5.008779190018, 2.504292193987, 198.237958883
445, 6.452611739297, 2.504292193987, 196.7290381413
446, 3.669265570394, 2.69101818449, 199.1089021778
447, 2.709976562646, 1.857684851157, 199.5270197974
448, 7.408873150076, 2.500204534492, 195.018045501
449, 7.937549574002, 2.500204534492, 192.9976506203
450, 7.93155889099, 2.5, 190.9557904622
451, 7.39103626009, 2.5, 188.9385325411
452, 6.34682672233, 2.5, 187.1299085679
453, 4.87009143207, 2.5, 185.6531732777
454, 3.061467458921, 2.5, 184.6089637399
455, 1.04420953776, 2.5, 184.068441109
456, -3.061467458921, 2.5, 184.6089637399
457, -1.04420953776, 2.5, 184.068441109
458, -6.34682672233, 2.5, 187.1299085679
459, -4.87009143207, 2.5, 185.6531732777
460, -7.93155889099, 2.5, 190.9557904622
461, -7.39103626009, 2.5, 188.9385325411
462, -7.408873150076, 2.500204534492, 195.018045501
463, -7.937549574002, 2.500204534492, 192.9976506203
464, -5.008779190018, 2.504292193987, 198.237958883
465, -6.452611739297, 2.504292193987, 196.7290381413
466, -3.669265570394, 2.69101818449, 199.1089021778
467, -2.709976562646, 1.857684851157, 199.5270197974
468, 0.914301775996, -0.2085494797587, 199.9475815354
469, -0.914301775996, -0.2085494797587, 199.9475815354
470, -1.704319104564, 1.024351517824, 199.8163480213
471, 1.704319104564, 1.024351517824, 199.8163480213
472, 10.01929225336, -0.002590188100204, 74.14600892568
473, -10.01929227301, 0.002590108333714, 74.14600891815
474, -7.542383640765, 1.501295054167, 74.96502269637
475, -7.542383640765, -1.498704945833, 74.96502269637
476, -2.510106613121, -4, 75.88726169402
477, -9.642331246523, -4, 74.28736289802
478, -12.0470550294, -2.498704945833, 73.27584746588
479, -2.510106613121, 4, 75.88726169402
480, -9.642331246523, 4, 74.28736289802
481, -12.0470550294, 2.501295054167, 73.27584746588
482, 2.510106613121, 4, 75.88726169402
483, 7.542383630636, -1.50129509405, 74.9650226992
484, 7.542383630636, 1.49870490595, 74.9650226992
485, 9.642331246523, 4, 74.28736289802
486, 12.0470550199, 2.49870490595, 73.27584747041
487, 2.510106613121, -4, 75.88726169402
488, 9.642331246523, -4, 74.28736289802
489, 12.0470550199, -2.50129509405, 73.27584747041
490, 24.24871130596, 0, 62
491, 19.79898987322, 0, 67.79898987322
492, 14, 0, 72.24871130596
493, 28, 0, 48
494, 27.04592313609, 0, 55.24693326287
495, 24.24871130596, 0, 34
496, 27.04592313609, 0, 40.75306673713
497, 14, 0, 23.75128869404
498, 19.79898987322, 0, 28.20101012678
499, -1.706539592236e-13, 0, 20
500, 7.24693326287, 0, 20.95407686391
501, -7.246933262871, 0, 20.95407686391
502, -19.79898987322, 0, 28.20101012678
503, -14, 0, 23.75128869404
504, -27.04592313609, 0, 40.75306673713
505, -24.24871130596, 0, 34
506, -27.04592313609, 0, 55.24693326287
507, -28, 0, 48
508, -19.79898987322, 0, 67.79898987322
509, -24.24871130596, 0, 62
510, -14, 0, 72.24871130596
511, -7.174332940777e-15, -5, 48
512, -3.751288694036, -5, 62
513, -14, -5, 51.75128869404
514, 3.751288694036, -5, 34
515, 14, -5, 44.24871130596
516, 10.24871130596, -5, 58.24871130596
517, -10.24871130596, -5, 37.75128869404
518, 5.124355652982, -5, 67.12435565298
519, -14, -5, 62
520, 19.12435565298, -5, 53.12435565298
521, 14, -5, 34
522, 2.562177826491, -5, 71.56217782649
523, 9.562177826491, -5, 69.68653347947
524, -8.875644347018, -5, 67.12435565298
525, -1.875644347018, -5, 69
526, 0.6865334794732, -5, 64.56217782649
527, 12.12435565298, -5, 65.24871130596
528, 17.24871130596, -5, 60.12435565298
529, 7.686533479473, -5, 62.68653347947
530, 21.68653347947, -5, 57.56217782649
531, 23.56217782649, -5, 50.56217782649
532, 14.68653347947, -5, 55.68653347947
533, 21, -5, 46.12435565298
534, 19.12435565298, -5, 39.12435565298
535, 16.56217782649, -5, 48.68653347947
536, 19.12435565298, -5, 34
537, 14, -5, 28.87564434702
538, 14, -5, 39.12435565298
539, 8.875644347018, -5, 28.87564434702
540, 1.875644347018, -5, 27
541, 8.875644347018, -5, 34
542, -5.124355652982, -5, 28.87564434702
543, -12.12435565298, -5, 30.75128869404
544, -3.248711305964, -5, 35.87564434702
545, -17.24871130596, -5, 35.87564434702
546, -19.12435565298, -5, 42.87564434702
547, -21, -5, 49.87564434702
548, -12.12435565298, -5, 44.75128869404
549, -19.12435565298, -5, 56.87564434702
550, -19.12435565298, -5, 62
551, -14, -5, 67.12435565298
552, -14, -5, 56.87564434702
553, -8.875644347018, -5, 62
554, -1.875644347018, -5, 55
555, -8.875644347018, -5, 56.87564434702
556, -7, -5, 49.87564434702
557, 5.124355652982, -5, 53.12435565298
558, 3.248711305964, -5, 60.12435565298
559, -5.124355652982, -5, 42.87564434702
560, 1.875644347018, -5, 41
561, 8.875644347018, -5, 39.12435565298
562, 7, -5, 46.12435565298
563, 12.12435565298, -5, 51.24871130596
564, -7.174332940777e-15, 5, 48
565, -3.751288694036, 5, 62
566, -14, 5, 51.75128869404
567, 3.751288694036, 5, 34
568, 14, 5, 44.24871130596
569, 10.24871130596, 5, 58.24871130596
570, -10.24871130596, 5, 37.75128869404
571, 5.124355652982, 5, 67.12435565298
572, -14, 5, 62
573, 19.12435565298, 5, 53.12435565298
574, 14, 5, 34
575, 9.562177826491, 5, 69.68653347947
576, 2.562177826491, 5, 71.56217782649
577, -1.875644347018, 5, 69
578, -8.875644347018, 5, 67.12435565298
579, 0.6865334794732, 5, 64.56217782649
580, 17.24871130596, 5, 60.12435565298
581, 12.12435565298, 5, 65.24871130596
582, 7.686533479473, 5, 62.68653347947
583, 23.56217782649, 5, 50.56217782649
584, 21.68653347947, 5, 57.56217782649
585, 14.68653347947, 5, 55.68653347947
586, 19.12435565298, 5, 39.12435565298
587, 21, 5, 46.12435565298
588, 16.56217782649, 5, 48.68653347947
589, 14, 5, 28.87564434702
590, 19.12435565298, 5, 34
591, 14, 5, 39.12435565298
592, 1.875644347018, 5, 27
593, 8.875644347018, 5, 28.87564434702
594, 8.875644347018, 5, 34
595, -12.12435565298, 5, 30.75128869404
596, -5.124355652982, 5, 28.87564434702
597, -3.248711305964, 5, 35.87564434702
598, -17.24871130596, 5, 35.87564434702
599, -21, 5, 49.87564434702
600, -19.12435565298, 5, 42.87564434702
601, -12.12435565298, 5, 44.75128869404
602, -19.12435565298, 5, 56.87564434702
603, -14, 5, 67.12435565298
604, -19.12435565298, 5, 62
605, -14, 5, 56.87564434702
606, -8.875644347018, 5, 62
607, -7, 5, 49.87564434702
608, -8.875644347018, 5, 56.87564434702
609, -1.875644347018, 5, 55
610, 3.248711305964, 5, 60.12435565298
611, 5.124355652982, 5, 53.12435565298
612, -5.124355652982, 5, 42.87564434702
613, 7, 5, 46.12435565298
614, 8.875644347018, 5, 39.12435565298
615, 1.875644347018, 5, 41
616, 12.12435565298, 5, 51.24871130596
617, 1.879065298762, 8.881784197001e-16, 204.5912207106
618, 7.495093791413, -2.5, 184.5049062086
619, 5.701942847077, -2.5, 183.4696300282
620, 7.495093791413, 2.5, 184.5049062086
621, 5.701942847077, 2.5, 183.4696300282
622, 9.333333333333, 0, 182.6666666667
623, -10.23848852282, 2.5, 189.2566052686
624, -10.25037187263, 2.500204534492, 191.2817441061
625, -12.74957043532, 0, 188.583762898
626, -10.25037187263, -2.499795465508, 191.2817441061
627, -10.23848852282, -2.5, 189.2566052686
628, 2.667113233685, -2.5, 181.8377929749
629, 0.5965608728647, -2.5, 181.8377929749
630, 0.5965608728647, 2.5, 181.8377929749
631, 3.26367410655, 0, 179.4029925601
632, 2.667113233685, 2.5, 181.8377929749
633, -9.124928405887, 0, 182.7225085987
634, -7.39089132769, 2.5, 184.5328271746
635, -7.39089132769, -2.5, 184.5328271746
636, -5.597740383354, -2.5, 183.4975509942
637, -5.597740383354, 2.5, 183.4975509942
638, 10.17409037491, -2.499795465508, 191.3580256038
639, 10.1622070251, -2.5, 189.3328867663
640, 10.17409037491, 2.500204534492, 191.3580256038
641, 10.1622070251, 2.5, 189.3328867663
642, 12.59700743988, 0, 188.7363258935
643, -9.140737844336, 2.504292193987, 196.340541477
644, -10.06600999924, 2.500204534492, 194.6293590862
645, -10.06600999924, -2.499795465508, 194.6293590862
646, -12.38084668855, 0, 195.2789928582
647, -9.140737844336, -2.495707806013, 196.340541477
648, 9.127248678994, -2.495707806013, 196.3561495728
649, 10.0525208339, -2.499795465508, 194.644967182
650, 9.127248678994, 2.504292193987, 196.3561495728
651, 10.0525208339, 2.500204534492, 194.644967182
652, 12.35386835786, 0, 195.3102090499
653, 6.298503719941, 0, 181.0348296134
654, -9.203212342407, 2.5, 187.4634543243
655, -10.9372494206, 0, 185.6531357483
656, -12.56520856193, 0, 191.9313778781
657, 12.47543789887, 0, 192.0232674717
658, 7.589060200726, -2.495707806013, 199.2635092508
659, 10.81567987959, 0, 198.2175687279
660, 9.277491401325, 0, 201.1249284059
661, 7.589060200726, 2.504292193987, 199.2635092508
662, -6.217568727888, 0, 181.1843201204
663, -2.690380705355, 2.5, 181.9593625159
664, -0.02326747167005, 0, 179.5245621011
665, -7.59371369506, 2.504292193987, 199.2461421735
666, -9.286798389993, 0, 201.0901942513
667, -7.59371369506, -2.495707806013, 199.2461421735
668, -10.83382253927, 0, 198.1845935548
669, -3.31020904989, 0, 179.6461316421
670, -2.690380705355, -2.5, 181.9593625159
671, 6.303939608237, -2.30898181551, 200.1993762517
672, 6.303939608237, 2.69101818449, 200.1993762517
673, -6.308593102571, 2.69101818449, 200.1820091744
674, -6.308593102571, -2.30898181551, 200.1820091744
675, 0.03122166029049, -1.041882813092, 202.1911168881
676, 0.9395326493808, 0.8333333333333, 202.2956103553
677, 0.9395326493808, -0.8333333333333, 202.2956103553
678, -8.875644347018, 0, 62
679, -14, 0, 62
680, -12.0096461365, -2.498704945833, 68.07300445908
681, -12.0096461365, 2.501295054167, 68.07300445908
682, -6.885290483521, 2.501295054167, 68.07300445908
683, -2.771315697408, 4.166666666667, 202.1342860591
684, -1.736039516998, 3.333333333333, 202.2705827539
685, -3.401233424572, 2.69101818449, 201.9074948027
686, -0.7256612581935, 0.1910181844904, 201.932522404
687, 6.631837053275, 0, 177.0412422422
688, 9.666666666667, 0, 178.6730792955
689, 2.604726556955, 0.1910181844904, 201.932522404
690, 5.578278350044, 2.5, 202.8580745582
691, 5.578278350044, -2.5, 202.8580745582
692, 9.126930844688, 2.5, 187.539735822
693, 9.126930844688, -2.5, 187.539735822
694, -8.4261675081, -2.5, 186.3259781189
695, 2.616429540084, -3.541882813092, 202.2702917505
696, 3.373312458568, -2.30898181551, 202.0116972664
697, -6.655104524945, 0, 177.1628117832
698, -2.644350506088, -3.541882813092, 202.1660892867
699, -3.401233424572, -2.30898181551, 201.9074948027
700, -0.7965068676172, -2.5, 204.5661931092
701, 7.571823953172, 2.49870490595, 70.63518228933
702, 7.571823953172, -2.50129509405, 70.63518228933
703, 5.124355652982, 0, 67.12435565298
704, 9.562177826491, 0, 69.68653347947
705, -1.736039516998, 0, 208.2705827539
706, -3.472079033996, 0, 204.5411655079
707, -0.7965068676172, 2.5, 204.5661931092
708, 0.9395326493808, 2.5, 208.2956103553
709, 13.29899973851, 0, 201.5624642029
710, 14.83718821678, 0, 198.6551045249
711, 3.373312458568, 2.69101818449, 202.0116972664
712, 2.743394731404, 4.166666666667, 202.2384885228
713, -6.665193906813, 0.1910181844904, 204.297166087
714, -9.643399194235, 2.5, 205.2053511639
715, -9.643399194235, -2.5, 205.2053511639
716, -6.736039516237, -2.5, 206.9308367922
717, -6.736039516237, 2.5, 206.9308367922
718, -3.751288694036, 0, 62
719, -6.885290483521, -2.498704945833, 68.07300445908
720, 14.68653347947, 0, 55.68653347947
721, 16.56217782649, 0, 48.68653347947
722, 19.12435565298, 0, 53.12435565298
723, 8.875644347018, 0, 34
724, 8.875644347018, 0, 39.12435565298
725, 14, 0, 34
726, 14, 0, 39.12435565298
727, 3.248711305964, 0, 60.12435565298
728, 0.6865334794732, 0, 64.56217782649
729, 7.686533479473, 0, 62.68653347947
730, 13.32692070451, 0, 182.3333333333
731, -14, 0, 67.12435565298
732, 10.96517038661, 0, 185.7014962801
733, -15.03503925551, 0, 185.291881449
734, -13.22271824079, 0, 182.3612542993
735, -16.37478521766, 0, 190.291881449
736, 14.95875775779, 0, 185.3681629467
737, -16.19042334427, 0, 193.6394964291
738, 16.17693417893, 0, 193.6551045249
739, 16.29850371994, 0, 190.3681629467
740, -9.562464202944, 0, 178.7010002615
741, -13.30365323284, 0, 201.5450971257
742, -14.85067738212, 0, 198.6394964291
743, 0.9395326493808, -2.5, 208.2956103553
744, 9.638745700662, 2.5, 205.2227182408
745, 9.638745700662, -2.5, 205.2227182408
746, 2.647651200375, 2.5, 204.6703955729
747, 1.875644347018, 0, 41
748, 7, 0, 46.12435565298
749, -7.174332940777e-15, 0, 48
750, -1.875644347018, 0, 55
751, 5.124355652982, 0, 53.12435565298
752, 3.751288694036, 0, 34
753, 10.24871130596, 0, 58.24871130596
754, 12.12435565298, 0, 51.24871130596
755, 14, 0, 44.24871130596
756, 19.12435565298, 0, 34
757, 14, 0, 28.87564434702
758, 8.875644347018, 0, 28.87564434702
759, -19.12435565298, 0, 62
760, 12.12435565298, 0, 65.24871130596
761, 21, 0, 46.12435565298
762, 23.56217782649, 0, 50.56217782649
763, 21.68653347947, 0, 57.56217782649
764, 2.647651200375, -2.5, 204.6703955729
765, 1.847843638471, -1.041882813092, 202.1911168881
766, 5.93953264938, 4.440892098501e-16, 206.9558643931
767, -3.248711305964, 0, 35.87564434702
768, 1.875644347018, 0, 27
769, -14, 0, 56.87564434702
770, 6.708118550994, 2.5, 207.0350392555
771, 6.708118550994, -2.5, 207.0350392555
772, 19.12435565298, 0, 39.12435565298
773, 17.24871130596, 0, 60.12435565298
774, 1.974808829791, 1.666666666667, 202.1593136604
775, -8.875644347018, 0, 56.87564434702
776, -7, 0, 49.87564434702
777, -5.124355652982, 0, 42.87564434702
778, 0.9395326493808, 2.5, 202.2956103553
779, -5.124355652982, 0, 28.87564434702
780, -10.24871130596, 0, 37.75128869404
781, -21, 0, 49.87564434702
782, -19.12435565298, 0, 42.87564434702
783, -12.12435565298, 0, 30.75128869404
784, -14, 0, 51.75128869404
785, -17.24871130596, 0, 35.87564434702
786, -12.12435565298, 0, 44.75128869404
787, -19.12435565298, 0, 56.87564434702
788, 0.9395326493808, -2.5, 202.2956103553
789, 4.131837053275, -4, 176.0190379145
790, -2.5, 0, 109.2574510266
791, 2.5, 0, 75.77497731396
792, 0, 0, 142.5149020532
793, -0.8681629467252, 4, 176.0190379145
794, -4.155104524945, 4, 176.1406074556
795, -4.155104524945, -4, 176.1406074556
796, 5.062177826491, 4, 71.33715514045
797, 5.062177826491, -4, 71.33715514045
798, 4.131837053275, 4, 176.0190379145
799, 4.131837053275, 1, 176.0190379145
800, -4.155104524945, 1, 176.1406074556
801, -4.375644347018, 4, 68.77497731396
802, -4.375644347018, -4, 68.77497731396
803, 0, 0, 157.5749926611
804, 0, 0, 172.635083269
805, -0.8681629467252, 1, 176.0190379145
806, 2.562177826491, 1, 71.56217782649
807, -1.875644347018, -4, 69
808, 2.562177826491, -4, 71.56217782649
809, -1.875644347018, 1, 69
810, -4.375644347018, 1, 68.77497731396
811, -1.875644347018, 4, 69
812, 2.562177826491, 4, 71.56217782649
813, 5.062177826491, 1, 71.33715514045
814, -6.86e-15, 0, 76
815, 2.5, 0, 109.2574510266
816, -2.5, 0, 75.77497731396
817, -0.8681629467252, -4, 176.0190379145


** Volume elements
*Element, TYPE=C3D10, ELSET=Evolumes
421, 394, 395, 224, 296, 425, 618, 619, 621, 620, 622
422, 381, 299, 385, 227, 624, 623, 437, 626, 625, 627
423, 230, 393, 394, 302, 629, 428, 628, 631, 630, 632
424, 386, 229, 301, 393, 635, 633, 634, 431, 636, 637
425, 396, 384, 231, 303, 419, 638, 639, 641, 640, 642
426, 300, 381, 382, 228, 644, 440, 643, 646, 645, 647
427, 384, 383, 234, 306, 416, 648, 649, 651, 650, 652
428, 224, 302, 394, 296, 653, 632, 619, 622, 330, 621
429, 394, 224, 230, 302, 619, 258, 628, 632, 653, 631
430, 386, 299, 301, 229, 654, 339, 634, 635, 655, 633
431, 381, 300, 299, 227, 644, 342, 624, 626, 656, 625
432, 300, 227, 381, 228, 656, 626, 644, 646, 270, 645
433, 384, 234, 231, 303, 649, 252, 638, 640, 657, 642
434, 233, 306, 383, 305, 659, 650, 658, 660, 321, 661
435, 229, 304, 301, 393, 662, 336, 633, 636, 663, 637
436, 393, 230, 304, 302, 629, 664, 663, 630, 631, 333
437, 382, 298, 300, 226, 665, 345, 643, 667, 666, 668
438, 384, 306, 234, 303, 651, 652, 649, 640, 324, 657
439, 234, 383, 233, 306, 648, 658, 249, 652, 650, 659
440, 229, 232, 304, 393, 264, 669, 662, 636, 670, 663
441, 304, 393, 232, 230, 663, 670, 669, 664, 629, 261
442, 382, 226, 300, 228, 667, 668, 643, 647, 273, 646
443, 389, 233, 383, 305, 671, 658, 411, 672, 660, 661
444, 382, 388, 298, 226, 441, 673, 665, 667, 674, 666
445, 133, 392, 132, 617, 469, 402, 135, 676, 675, 677
446, 572, 519, 565, 473, 679, 678, 606, 681, 680, 682
447, 133, 297, 387, 388, 684, 683, 407, 470, 685, 467
448, 133, 388, 392, 617, 470, 443, 469, 676, 686, 675
449, 22, 302, 224, 296, 687, 653, 254, 688, 330, 622
450, 22, 230, 224, 302, 256, 258, 254, 687, 631, 653
451, 305, 389, 233, 617, 672, 671, 660, 690, 689, 691
452, 94, 396, 395, 303, 451, 422, 452, 352, 641, 692
453, 71, 396, 231, 395, 417, 639, 279, 421, 422, 693
454, 229, 386, 385, 75, 635, 434, 694, 287, 430, 432
455, 223, 68, 391, 389, 240, 398, 695, 696, 412, 413
456, 24, 304, 229, 232, 697, 662, 262, 260, 669, 264
457, 388, 225, 392, 617, 699, 698, 443, 686, 700, 675
458, 388, 225, 78, 392, 699, 243, 442, 443, 698, 400
459, 518, 571, 472, 139, 703, 701, 702, 523, 704, 489
460, 396, 70, 231, 384, 418, 280, 639, 419, 414, 638
461, 384, 303, 396, 93, 640, 641, 419, 449, 351, 450
462, 225, 297, 1, 617, 706, 309, 705, 700, 707, 708
463, 42, 306, 233, 305, 320, 659, 709, 316, 321, 660
464, 42, 233, 306, 234, 709, 659, 320, 710, 249, 652
465, 389, 91, 390, 295, 446, 404, 447, 711, 313, 712
466, 185, 298, 388, 226, 714, 673, 713, 715, 666, 674
467, 388, 225, 185, 226, 699, 716, 713, 674, 274, 715
468, 298, 388, 297, 185, 673, 685, 346, 714, 713, 717
469, 297, 185, 388, 225, 717, 713, 685, 706, 716, 699
470, 512, 565, 519, 473, 718, 678, 553, 719, 682, 680
471, 387, 297, 101, 388, 683, 314, 406, 467, 685, 466
472, 515, 573, 516, 520, 721, 720, 563, 535, 722, 532
473, 515, 521, 567, 574, 538, 723, 724, 726, 725, 594
474, 571, 512, 569, 518, 728, 727, 582, 703, 526, 729
475, 381, 77, 382, 228, 436, 438, 440, 645, 291, 647
476, 224, 21, 22, 296, 253, 33, 254, 622, 730, 688
477, 382, 300, 100, 381, 643, 364, 465, 440, 644, 462
478, 572, 172, 519, 473, 603, 731, 679, 681, 481, 680
479, 234, 384, 69, 383, 649, 415, 278, 648, 416, 409
480, 384, 92, 383, 306, 448, 445, 416, 651, 349, 650
481, 231, 21, 224, 296, 251, 253, 255, 732, 730, 622
482, 229, 48, 227, 299, 734, 733, 267, 655, 338, 625
483, 297, 388, 133, 617, 685, 470, 684, 707, 686, 676
484, 395, 296, 94, 303, 620, 353, 452, 692, 327, 352
485, 231, 224, 71, 395, 255, 282, 279, 693, 618, 421
486, 229, 385, 227, 75, 694, 627, 267, 287, 432, 290
487, 49, 299, 300, 227, 337, 342, 341, 735, 625, 656
488, 296, 231, 21, 303, 732, 251, 730, 327, 642, 736
489, 48, 301, 299, 229, 334, 339, 338, 734, 633, 655
490, 227, 300, 26, 228, 656, 737, 266, 270, 646, 268
491, 234, 43, 306, 42, 738, 319, 652, 710, 54, 320
492, 20, 231, 234, 303, 250, 252, 248, 739, 642, 657
493, 304, 47, 229, 301, 331, 740, 662, 336, 335, 633
494, 300, 298, 27, 226, 345, 741, 742, 668, 666, 271
495, 234, 303, 306, 43, 657, 324, 652, 738, 323, 319
496, 226, 27, 300, 228, 271, 742, 668, 273, 269, 646
497, 162, 472, 571, 139, 486, 701, 575, 492, 489, 704
498, 2, 225, 1, 617, 238, 705, 17, 743, 700, 708
499, 1, 185, 297, 225, 187, 717, 309, 705, 716, 706
500, 233, 305, 186, 42, 660, 744, 745, 709, 316, 211
501, 305, 295, 389, 617, 318, 711, 672, 690, 746, 689
502, 78, 388, 382, 226, 442, 441, 439, 293, 674, 667
503, 297, 225, 388, 617, 706, 699, 685, 707, 700, 686
504, 515, 567, 511, 564, 724, 747, 562, 748, 615, 749
505, 564, 512, 511, 516, 750, 554, 749, 751, 558, 557
506, 564, 516, 511, 515, 751, 557, 749, 748, 563, 562
507, 515, 511, 567, 514, 562, 747, 724, 561, 560, 752
508, 565, 512, 564, 569, 718, 750, 609, 610, 727, 611
509, 569, 564, 568, 516, 611, 613, 616, 753, 751, 754
510, 516, 564, 568, 515, 751, 613, 754, 563, 748, 755
511, 564, 567, 568, 515, 615, 614, 613, 748, 724, 755
512, 564, 569, 512, 516, 611, 727, 750, 751, 753, 558
513, 233, 383, 68, 389, 658, 410, 276, 671, 411, 412
514, 515, 574, 142, 521, 726, 756, 534, 538, 725, 536
515, 567, 143, 574, 521, 758, 757, 594, 723, 537, 725
516, 171, 519, 572, 172, 759, 679, 604, 183, 731, 603
517, 518, 569, 571, 139, 729, 582, 703, 523, 760, 704
518, 164, 573, 515, 520, 583, 721, 761, 762, 722, 535
519, 140, 516, 573, 520, 528, 720, 763, 530, 532, 722
520, 223, 389, 391, 617, 696, 413, 695, 764, 689, 765
521, 223, 233, 389, 617, 246, 671, 696, 764, 691, 689
522, 70, 234, 231, 384, 277, 252, 280, 414, 649, 638
523, 303, 384, 306, 93, 640, 651, 324, 351, 449, 350
524, 565, 172, 572, 473, 578, 603, 606, 682, 481, 681
525, 233, 68, 223, 389, 276, 240, 246, 671, 412, 696
526, 233, 186, 305, 617, 745, 744, 660, 691, 766, 690
527, 296, 22, 302, 45, 688, 687, 330, 325, 206, 329
528, 387, 8, 297, 133, 405, 315, 683, 407, 136, 684
529, 573, 516, 568, 515, 720, 754, 588, 721, 563, 755
530, 573, 569, 568, 516, 585, 616, 588, 720, 753, 754
531, 515, 567, 521, 514, 724, 723, 538, 561, 752, 541
532, 512, 569, 565, 571, 727, 610, 718, 728, 582, 579
533, 567, 574, 568, 515, 594, 591, 614, 724, 726, 755
534, 516, 569, 512, 518, 753, 727, 558, 529, 729, 526
535, 226, 382, 77, 228, 667, 438, 294, 273, 647, 291
536, 300, 100, 298, 382, 364, 365, 345, 643, 465, 665
537, 514, 167, 570, 567, 768, 596, 767, 752, 592, 597
538, 234, 69, 233, 383, 278, 275, 249, 648, 409, 658
539, 383, 306, 92, 305, 650, 349, 445, 661, 321, 348
540, 78, 225, 388, 226, 243, 699, 442, 293, 274, 674
541, 304, 229, 47, 24, 662, 740, 331, 697, 262, 201
542, 49, 227, 48, 299, 735, 733, 60, 337, 625, 338
543, 21, 20, 303, 231, 32, 739, 736, 251, 250, 642
544, 301, 48, 47, 229, 334, 59, 335, 633, 734, 740
545, 27, 26, 300, 228, 38, 737, 742, 269, 268, 646
546, 566, 519, 565, 572, 769, 678, 608, 605, 679, 606
547, 233, 19, 234, 42, 245, 247, 249, 709, 210, 710
548, 300, 27, 298, 50, 742, 741, 345, 340, 221, 344
549, 164, 140, 573, 520, 494, 763, 583, 762, 530, 722
550, 142, 574, 143, 521, 756, 757, 154, 536, 725, 537
551, 185, 27, 298, 226, 220, 741, 714, 715, 271, 666
552, 295, 389, 91, 305, 711, 446, 313, 318, 672, 347
553, 2, 185, 1, 225, 188, 187, 17, 238, 716, 705
554, 298, 382, 101, 388, 665, 464, 366, 673, 441, 466
555, 186, 295, 305, 617, 770, 318, 744, 766, 746, 690
556, 186, 233, 223, 617, 745, 246, 771, 766, 691, 764
557, 383, 91, 389, 305, 444, 446, 411, 661, 347, 672
558, 519, 149, 512, 473, 551, 524, 553, 680, 478, 719
559, 521, 567, 143, 514, 723, 758, 537, 541, 752, 539
560, 569, 518, 516, 139, 729, 529, 753, 760, 523, 527
561, 162, 571, 569, 139, 575, 582, 581, 492, 704, 760
562, 165, 568, 574, 515, 586, 591, 590, 772, 755, 726
563, 164, 515, 573, 568, 761, 721, 583, 587, 755, 588
564, 569, 516, 573, 140, 753, 720, 585, 773, 528, 763
565, 298, 101, 297, 388, 366, 314, 346, 673, 466, 685
566, 22, 296, 21, 45, 688, 730, 33, 206, 325, 214
567, 295, 390, 389, 617, 712, 447, 711, 746, 774, 689
568, 229, 25, 47, 24, 263, 215, 740, 262, 36, 201
569, 512, 565, 564, 566, 718, 609, 750, 775, 608, 607
570, 564, 511, 512, 566, 749, 554, 750, 607, 776, 775
571, 567, 570, 514, 511, 597, 767, 752, 747, 777, 560
572, 511, 570, 564, 567, 777, 612, 749, 747, 597, 615
573, 164, 165, 515, 568, 176, 772, 761, 587, 586, 755
574, 569, 139, 516, 140, 760, 527, 753, 773, 151, 528
575, 162, 569, 163, 139, 581, 580, 174, 492, 760, 491
576, 186, 223, 2, 617, 771, 235, 190, 766, 764, 743
577, 295, 186, 1, 617, 770, 189, 308, 746, 766, 708
578, 133, 8, 297, 617, 136, 315, 684, 676, 778, 707
579, 2, 1, 186, 617, 17, 189, 190, 743, 708, 766
580, 519, 172, 149, 473, 731, 510, 551, 680, 481, 478
581, 519, 572, 566, 171, 679, 605, 769, 759, 604, 602
582, 42, 43, 19, 234, 54, 209, 210, 710, 738, 247
583, 167, 517, 144, 514, 779, 542, 499, 768, 544, 540
584, 570, 517, 167, 514, 780, 779, 596, 767, 544, 768
585, 27, 300, 49, 50, 742, 341, 218, 221, 340, 61
586, 170, 147, 169, 513, 507, 504, 181, 781, 547, 782
587, 517, 167, 145, 168, 779, 501, 543, 783, 179, 503
588, 229, 227, 48, 25, 267, 733, 734, 263, 265, 217
589, 296, 303, 21, 44, 327, 736, 730, 326, 322, 212
590, 300, 26, 49, 227, 737, 219, 341, 656, 266, 735
591, 20, 303, 234, 43, 739, 657, 248, 208, 323, 738
592, 519, 565, 512, 566, 678, 718, 553, 769, 608, 775
593, 567, 166, 574, 143, 593, 589, 594, 758, 497, 757
594, 519, 171, 149, 172, 759, 508, 551, 731, 183, 510
595, 165, 574, 142, 515, 590, 756, 495, 772, 726, 534
596, 520, 515, 164, 141, 535, 761, 762, 531, 533, 493
597, 569, 573, 163, 140, 585, 584, 580, 773, 763, 490
598, 227, 75, 385, 76, 290, 432, 627, 289, 87, 433
599, 395, 95, 94, 296, 453, 106, 452, 620, 354, 353
600, 224, 72, 71, 395, 281, 83, 282, 618, 420, 421
601, 98, 99, 299, 385, 110, 362, 361, 461, 460, 623
602, 233, 186, 19, 42, 745, 207, 245, 709, 211, 210
603, 298, 185, 50, 27, 714, 222, 344, 741, 220, 221
604, 391, 133, 132, 617, 468, 135, 401, 765, 676, 677
605, 143, 167, 514, 567, 500, 768, 539, 758, 592, 752
606, 515, 165, 141, 142, 772, 496, 533, 534, 495, 153
607, 515, 141, 165, 164, 533, 496, 772, 761, 493, 176
608, 139, 569, 163, 140, 760, 580, 491, 151, 773, 490
609, 382, 77, 78, 226, 438, 89, 439, 667, 294, 293
610, 169, 513, 566, 170, 782, 784, 600, 181, 781, 599
611, 168, 517, 167, 570, 783, 779, 179, 595, 780, 596
612, 167, 144, 517, 145, 499, 542, 779, 501, 156, 543
613, 513, 147, 169, 146, 547, 504, 782, 546, 158, 505
614, 73, 394, 72, 230, 423, 424, 84, 283, 628, 284
615, 301, 97, 98, 386, 359, 109, 360, 634, 459, 458
616, 394, 302, 96, 95, 632, 356, 455, 454, 355, 107
617, 229, 74, 386, 75, 288, 429, 635, 287, 86, 430
618, 70, 396, 231, 71, 418, 639, 280, 82, 417, 279
619, 396, 303, 94, 93, 641, 352, 451, 450, 351, 105
620, 389, 390, 133, 617, 447, 408, 471, 689, 774, 676
621, 298, 100, 101, 382, 365, 112, 366, 665, 465, 464
622, 233, 69, 68, 383, 275, 80, 276, 658, 409, 410
623, 91, 383, 92, 305, 444, 445, 103, 347, 661, 348
624, 232, 393, 74, 73, 670, 427, 285, 286, 426, 85
625, 97, 393, 304, 96, 456, 663, 358, 108, 457, 357
626, 234, 43, 19, 20, 738, 209, 247, 248, 208, 31
627, 27, 300, 26, 49, 742, 737, 38, 218, 341, 219
628, 25, 227, 48, 26, 265, 733, 217, 37, 266, 216
629, 49, 48, 227, 26, 60, 733, 735, 219, 216, 266
630, 21, 45, 296, 44, 214, 325, 730, 212, 56, 326
631, 69, 234, 70, 384, 278, 277, 81, 415, 649, 414
632, 92, 306, 384, 93, 349, 651, 448, 104, 350, 449
633, 303, 20, 44, 43, 739, 213, 322, 323, 208, 55
634, 229, 47, 25, 48, 740, 215, 263, 734, 59, 217
635, 303, 44, 20, 21, 322, 213, 739, 736, 212, 32
636, 91, 8, 390, 295, 102, 403, 404, 313, 312, 712
637, 381, 76, 77, 228, 435, 88, 436, 645, 292, 291
638, 99, 100, 300, 381, 111, 364, 363, 463, 462, 644
639, 18, 223, 2, 186, 236, 235, 29, 193, 771, 190
640, 295, 1, 186, 41, 308, 189, 770, 307, 52, 191
641, 41, 186, 305, 42, 191, 744, 317, 53, 211, 316
642, 297, 1, 51, 185, 309, 63, 310, 717, 187, 192
643, 185, 225, 2, 28, 716, 238, 188, 194, 237, 40
644, 50, 298, 51, 185, 344, 343, 62, 222, 714, 192
645, 164, 573, 140, 163, 583, 763, 494, 175, 584, 490
646, 140, 164, 141, 520, 494, 493, 152, 530, 762, 531
647, 142, 143, 574, 166, 154, 757, 756, 498, 497, 589
648, 519, 148, 149, 171, 550, 160, 551, 759, 509, 508
649, 574, 142, 166, 165, 756, 498, 589, 590, 495, 177
650, 513, 512, 511, 566, 555, 554, 556, 784, 775, 776
651, 511, 570, 514, 517, 777, 767, 560, 559, 780, 544
652, 511, 566, 564, 570, 776, 607, 749, 777, 601, 612
653, 146, 513, 517, 169, 546, 548, 545, 505, 782, 785
654, 169, 517, 566, 513, 785, 786, 600, 782, 548, 784
655, 169, 566, 517, 570, 600, 786, 785, 598, 601, 780
656, 166, 567, 167, 143, 593, 592, 178, 497, 758, 500
657, 101, 8, 297, 387, 113, 315, 314, 406, 405, 683
658, 1, 297, 295, 617, 309, 311, 308, 708, 707, 746
659, 223, 225, 2, 617, 239, 238, 235, 764, 700, 743
660, 186, 305, 295, 41, 744, 318, 770, 191, 317, 307
661, 223, 18, 233, 186, 236, 244, 246, 771, 193, 745
662, 28, 185, 225, 226, 194, 716, 237, 272, 715, 274
663, 297, 51, 298, 185, 310, 343, 346, 717, 192, 714
664, 519, 512, 513, 566, 553, 555, 552, 769, 775, 784
665, 389, 133, 391, 617, 471, 468, 413, 689, 676, 765
666, 148, 519, 513, 171, 550, 552, 549, 509, 759, 787
667, 143, 514, 167, 144, 539, 768, 500, 155, 540, 499
668, 147, 170, 148, 513, 507, 506, 159, 547, 781, 549
669, 513, 170, 148, 171, 781, 506, 549, 787, 182, 509
670, 391, 223, 7, 68, 695, 241, 397, 398, 240, 79
671, 7, 225, 223, 617, 242, 239, 241, 788, 700, 764
672, 297, 8, 295, 617, 315, 312, 311, 707, 778, 746
673, 19, 233, 18, 186, 245, 244, 30, 207, 745, 193
674, 185, 28, 27, 226, 194, 39, 220, 715, 272, 271
675, 225, 7, 78, 392, 242, 90, 243, 698, 399, 400
676, 513, 511, 517, 566, 556, 559, 548, 784, 776, 786
677, 566, 511, 517, 570, 776, 559, 786, 601, 777, 780
678, 170, 513, 566, 171, 781, 784, 599, 182, 787, 602
679, 145, 146, 517, 168, 157, 545, 543, 503, 502, 783
680, 566, 513, 519, 171, 784, 552, 769, 602, 787, 759
681, 6, 230, 23, 22, 789, 257, 197, 204, 256, 34
682, 14, 117, 9, 114, 790, 369, 130, 379, 368, 115
683, 14, 13, 11, 126, 131, 129, 791, 380, 127, 376
684, 14, 126, 117, 114, 380, 792, 790, 379, 378, 368
685, 168, 146, 517, 169, 502, 545, 783, 180, 505, 785
686, 570, 168, 517, 169, 595, 783, 780, 598, 180, 785
687, 304, 302, 4, 46, 333, 793, 794, 332, 328, 199
688, 23, 3, 24, 232, 198, 195, 35, 259, 795, 260
689, 15, 162, 11, 571, 173, 485, 482, 576, 575, 796
690, 16, 518, 13, 139, 522, 797, 487, 150, 523, 488
691, 5, 46, 302, 45, 200, 328, 798, 205, 57, 329
692, 22, 6, 230, 302, 204, 789, 256, 687, 799, 631
693, 304, 4, 47, 46, 794, 202, 331, 332, 199, 58
694, 304, 24, 3, 232, 697, 195, 800, 669, 260, 795
695, 565, 10, 15, 172, 801, 479, 577, 578, 480, 184
696, 16, 149, 9, 512, 161, 477, 476, 525, 524, 802
697, 5, 302, 22, 45, 798, 687, 203, 205, 329, 206
698, 4, 304, 47, 24, 794, 331, 202, 196, 697, 201
699, 4, 126, 5, 6, 803, 374, 65, 804, 128, 66
700, 3, 126, 4, 6, 377, 803, 64, 67, 128, 804
701, 302, 5, 4, 46, 798, 65, 793, 328, 200, 199
702, 4, 3, 302, 304, 64, 805, 793, 794, 800, 333
703, 6, 22, 5, 302, 204, 203, 66, 799, 687, 798
704, 512, 571, 14, 518, 728, 806, 807, 526, 703, 808
705, 4, 5, 126, 121, 65, 374, 803, 370, 123, 375
706, 117, 126, 4, 3, 792, 803, 119, 367, 377, 64
707, 304, 4, 3, 24, 794, 64, 800, 697, 196, 195
708, 565, 14, 512, 571, 809, 807, 718, 579, 806, 728
709, 9, 565, 512, 473, 810, 718, 802, 475, 682, 719
710, 10, 172, 565, 473, 480, 578, 801, 474, 481, 682
711, 9, 512, 149, 473, 802, 524, 477, 475, 719, 478
712, 117, 126, 3, 114, 792, 377, 367, 368, 378, 116
713, 126, 4, 121, 117, 803, 370, 375, 792, 119, 371
714, 12, 565, 15, 571, 811, 577, 137, 812, 579, 576
715, 512, 14, 16, 518, 807, 138, 525, 526, 808, 522
716, 302, 6, 4, 5, 799, 804, 793, 798, 66, 65
717, 302, 4, 6, 3, 793, 804, 799, 805, 64, 67
718, 472, 13, 571, 518, 483, 813, 701, 702, 797, 703
719, 11, 571, 162, 472, 796, 575, 485, 484, 701, 486
720, 13, 518, 472, 139, 797, 702, 483, 488, 523, 489
721, 14, 565, 12, 571, 809, 811, 814, 806, 579, 812
722, 10, 565, 9, 473, 801, 810, 120, 474, 682, 475
723, 14, 512, 9, 565, 807, 802, 130, 809, 718, 810
724, 10, 15, 12, 565, 479, 137, 124, 801, 577, 811
725, 16, 9, 14, 512, 476, 130, 138, 525, 802, 807
726, 571, 13, 14, 518, 813, 131, 806, 703, 797, 808
727, 571, 11, 13, 472, 796, 129, 813, 701, 484, 483
728, 13, 16, 14, 518, 487, 138, 131, 797, 522, 808
729, 12, 15, 11, 571, 137, 482, 125, 812, 576, 796
730, 571, 14, 11, 12, 806, 791, 796, 812, 814, 125
731, 571, 11, 14, 13, 796, 791, 806, 813, 129, 131
732, 76, 227, 381, 385, 289, 626, 435, 433, 627, 437
733, 381, 227, 76, 228, 626, 289, 435, 645, 270, 292
734, 99, 299, 381, 300, 362, 624, 463, 363, 342, 644
735, 299, 99, 381, 385, 362, 463, 624, 623, 460, 437
736, 98, 386, 299, 301, 458, 654, 361, 360, 634, 339
737, 299, 386, 98, 385, 654, 458, 361, 623, 434, 461
738, 299, 385, 229, 386, 623, 694, 655, 654, 434, 635
739, 385, 299, 229, 227, 623, 655, 694, 627, 625, 267
740, 231, 395, 296, 224, 693, 620, 732, 255, 618, 622
741, 231, 303, 395, 396, 642, 692, 693, 639, 641, 422
742, 395, 303, 231, 296, 692, 642, 693, 620, 327, 732
743, 95, 296, 394, 302, 354, 621, 454, 355, 330, 632
744, 394, 296, 95, 395, 621, 354, 454, 425, 620, 453
745, 72, 394, 224, 230, 424, 619, 281, 284, 628, 258
746, 394, 72, 224, 395, 424, 281, 619, 425, 420, 618
747, 96, 393, 302, 394, 457, 630, 356, 455, 428, 632
748, 393, 96, 302, 304, 457, 356, 630, 663, 357, 333
749, 73, 393, 230, 232, 426, 629, 283, 286, 670, 261
750, 393, 73, 230, 394, 426, 283, 629, 428, 423, 628
751, 97, 393, 301, 304, 456, 637, 359, 358, 663, 336
752, 301, 393, 97, 386, 637, 456, 359, 634, 431, 459
753, 74, 229, 393, 232, 288, 636, 427, 285, 264, 670
754, 229, 74, 393, 386, 288, 427, 636, 635, 429, 431
755, 7, 617, 392, 225, 788, 675, 399, 242, 700, 698
756, 392, 617, 7, 132, 675, 788, 399, 402, 677, 134
757, 391, 7, 617, 132, 397, 788, 765, 401, 134, 677
758, 7, 391, 617, 223, 397, 765, 788, 241, 695, 764
759, 390, 617, 8, 133, 774, 778, 403, 408, 676, 136
760, 8, 617, 390, 295, 778, 774, 403, 312, 746, 712
761, 126, 12, 11, 14, 815, 125, 376, 380, 814, 791
762, 12, 126, 11, 121, 815, 376, 125, 373, 375, 122
763, 12, 126, 117, 14, 815, 792, 372, 814, 380, 790
764, 126, 12, 117, 121, 815, 372, 792, 375, 373, 371
765, 9, 117, 12, 10, 369, 372, 816, 120, 118, 124
766, 12, 117, 9, 14, 372, 369, 816, 814, 790, 130
767, 12, 565, 9, 10, 811, 810, 816, 124, 801, 120
768, 9, 565, 12, 14, 810, 811, 816, 130, 809, 814
769, 230, 232, 3, 23, 261, 795, 817, 257, 259, 198
770, 3, 232, 230, 304, 795, 261, 817, 800, 669, 664
771, 230, 302, 3, 304, 631, 805, 817, 664, 333, 800
772, 230, 6, 3, 302, 789, 67, 817, 631, 799, 805
773, 3, 6, 230, 23, 67, 789, 817, 198, 197, 257

** Define element set Eall
*ELSET, ELSET=Eall
Evolumes



***********************************************************
** Element sets for materials and FEM element type (solid, shell, beam, fluid)
*ELSET,ELSET=FEMPart002_MaterialSolid
Evolumes

** Physical constants for SI(mm) unit system with Kelvins
*PHYSICAL CONSTANTS, ABSOLUTE ZERO=0, STEFAN BOLTZMANN=5.670374419e-11

***********************************************************
** Materials
** see information about units at file end
** FreeCAD material name: CalculiX-Steel
** Material (FEMPart (LongPendulum001))
*MATERIAL, NAME=FEMPart002_Material
*ELASTIC
210000,0.3
*DENSITY
7.9E-09
*EXPANSION, ZERO=0
1.2E-05

***********************************************************
** Sections
*SOLID SECTION, ELSET=FEMPart002_MaterialSolid, MATERIAL=FEMPart002_Material

***********************************************************
** At least one step is needed to run an CalculiX analysis of FreeCAD

***********************************************************
** MbDJoint FacePair CLOADs
*NSET,NSET=NSU1
8,100,101,111,112,113,133,135,136,381,382,387,388,405,406,407
440,441,462,463,464,465,466,467,470
*NSET,NSET=NSU2
91,92,93,102,103,104,383,384,389,390,403,404,408,411,416,444
445,446,447,448,449,471
*NSET,NSET=NSU3
94,95,105,106,107,394,396,419,422,425,450,451,452,453,454,455
*NSET,NSET=NSU4
96,97,98,99,108,109,110,385,386,393,428,431,434,437,456,457
458,459,460,461
*NSET,NSET=NSL1
7,77,78,88,89,90,132,134,392,399,400,402,435,436,438,439
442,443,469
*NSET,NSET=NSL2
68,69,70,79,80,81,391,397,398,401,409,410,412,413,414,415
468
*NSET,NSET=NSL3
71,72,82,83,84,395,417,418,420,421,423,424
*NSET,NSET=NSL4
73,74,75,76,85,86,87,426,427,429,430,432,433
*NSET,NSET=NS1
*NSET,NSET=NS2
*NSET,NSET=NS3
*NSET,NSET=NS4

***********************************************************
** Automatic 3-2-1 constraints
** nodeXYZ 157: x=-19.7989898732, y=-5, z=28.2010101268
** nodeYZ 154: x=19.7989898732, y=-5, z=28.2010101268
** nodeZ 177: x=19.7989898732, y=5, z=28.2010101268
*NSET,NSET=MbDFEM321Constraints
157,154,177
*STEP, INC=2000
*STATIC
1.0,1.0,1e-05,1.0
*BOUNDARY
157,1,1,0
157,2,2,0
157,3,3,0
154,2,2,0
154,3,3,0
177,3,3,0
** reaction forces for automatic 3-2-1 constraint nodes
*NODE PRINT,NSET=MbDFEM321Constraints
RF

***********************************************************
** MbDJoint FacePair CLOADs
*CLOAD
** MbDFEM transverse_force
8,1,-5.164253389242E-18
8,3,1.99150004734E-49
100,1,-0.01788949850666
100,3,6.898758530538E-34
101,1,-0.01032850677848
101,3,3.98300009468E-34
111,1,-0.01995314288868
111,3,7.694565315127E-34
112,1,-0.0146067143652
112,3,5.63281275283E-34
113,1,-0.005346428523485
113,3,2.061752562297E-34
133,1,-5.060968321458E-18
133,3,1.951670046393E-49
135,1,-5.060968321458E-18
135,3,1.951670046393E-49
136,1,-5.060968321458E-18
136,3,1.951670046393E-49
381,1,-0.02001451151822
381,3,7.718231006837E-34
382,1,-0.01523617165628
382,3,5.875551466543E-34
387,1,-0.005346428523485
387,3,2.061752562297E-34
388,1,-0.008599483280937
388,3,3.316233745765E-34
405,1,-0.002696281322229
405,3,1.039771671941E-34
406,1,-0.007905096850393
406,3,3.048456294685E-34
407,1,-0.002696281322229
407,3,1.039771671941E-34
440,1,-0.0181707379478
440,3,7.007213387056E-34
441,1,-0.01216035423469
441,3,4.689418626223E-34
462,1,-0.01913064913787
462,3,7.377385614556E-34
463,1,-0.02049575864491
463,3,7.903815176194E-34
464,1,-0.01293330245401
464,3,4.987491997018E-34
465,1,-0.01666146102207
465,3,6.425188292138E-34
466,1,-0.009474508578969
466,3,3.653671278571E-34
467,1,-0.006997502824206
467,3,2.6984592264E-34
470,1,-0.004400767856048
470,3,1.697075788711E-34
96,1,-1.560325290034E-16
96,3,6.017109647333E-48
97,1,-0.01380648996931
97,3,5.324220822461E-34
98,1,-0.02391354210103
98,3,9.221820975219E-34
99,1,-0.02761297993861
99,3,1.064844164492E-33
108,1,-0.007146765100146
108,3,2.756019498369E-34
109,1,-0.01952532536336
109,3,7.529585296194E-34
110,1,-0.02667209046351
110,3,1.028560479456E-33
385,1,-0.02667209046351
385,3,1.028560479456E-33
386,1,-0.01952532536336
386,3,7.529585296194E-34
393,1,-0.007146765100146
393,3,2.756019498369E-34
428,1,-1.437699025608E-16
428,3,5.54422384371E-48
431,1,-0.01380648996931
431,3,5.324220822461E-34
434,1,-0.02391354210103
434,3,9.221820975219E-34
437,1,-0.02761250455936
437,3,1.064825832359E-33
456,1,-0.01056702994074
456,3,4.074982198018E-34
457,1,-0.003604217127236
457,3,1.389900540989E-34
458,1,-0.02190684986969
458,3,8.447976747896E-34
459,1,-0.01680971712662
459,3,6.482360552479E-34
460,1,-0.02737674706735
460,3,1.05573427505E-33
461,1,-0.02551106699693
461,3,9.837877288885E-34
7,1,-5.693035200386E-18
7,3,2.195415100021E-49
77,1,-0.01972125243269
77,3,7.60514099388E-34
78,1,-0.01138607040077
78,3,4.390830200042E-34
88,1,-0.0219961989201
88,3,8.48243257814E-34
89,1,-0.01610233518291
89,3,6.209571618976E-34
90,1,-0.005893863737195
90,3,2.272860959164E-34
132,1,-5.579174496378E-18
132,3,2.15150679802E-49
134,1,-5.579174496378E-18
134,3,2.15150679802E-49
392,1,-0.005171046433788
392,3,1.994119660964E-34
399,1,-0.00260257609726
399,3,1.003635962499E-34
400,1,-0.00836914079349
400,3,3.227406370328E-34
402,1,-0.00260257609726
402,3,1.003635962499E-34
435,1,-0.0225943745648
435,3,8.713108095964E-34
436,1,-0.02108948781929
436,3,8.132775993907E-34
438,1,-0.01836747288312
438,3,7.083080623512E-34
439,1,-0.01425757811987
439,3,5.498174733218E-34
442,1,-0.01044462902591
442,3,4.027780519615E-34
443,1,-0.007362416694335
443,3,2.839181598999E-34
469,1,-0.00260257609726
469,3,1.003635962499E-34
73,1,-1.523714146608E-16
73,3,5.875925455988E-48
74,1,-0.0134825374014
74,3,5.199294428326E-34
75,1,-0.02335243979417
75,3,9.00544211337E-34
76,1,-0.0269650748028
76,3,1.039858885665E-33
85,1,-0.006979074911579
85,3,2.691352838292E-34
86,1,-0.01906718724826
86,3,7.352912695309E-34
87,1,-0.02604626215984
87,3,1.00442655336E-33
426,1,-0.003519648536938
426,3,1.357288207921E-34
427,1,-0.01031908737952
427,3,3.979367675417E-34
429,1,-0.01641529747028
429,3,6.330259812049E-34
430,1,-0.021392832166
430,3,8.24975520374E-34
432,1,-0.02491248070294
432,3,9.60704341166E-34
433,1,-0.0267343848498
433,3,1.030962748747E-33
** MbDFEM axial_force
** MbDFEM bending_torque
** MbDFEM axial_torque

***********************************************************
** MbDPart D'Alembert element loads
*DLOAD
421,GRAV,724.050134054,-0.7719397877687,-3.935980889261E-16,-0.6356956536423
422,GRAV,724.7211256785,-0.1665918574106,-9.309774012071E-17,0.9860259393365
423,GRAV,717.9394105447,-0.9873512893311,-2.680008444121E-16,-0.1585478837963
424,GRAV,717.9394105447,-0.7757973571219,-1.133813770129E-16,0.6309821397494
425,GRAV,718.6013110483,-0.1606059833694,-5.367671354707E-16,-0.9870186006889
426,GRAV,712.6209847618,0.3411217674292,-1.606855199377E-16,0.940019116713
427,GRAV,712.1091537451,0.3428958348862,-5.804593786478E-16,-0.939373432889
428,GRAV,798.4414478565,-0.8515960953734,-3.298231255603E-16,-0.5241985218835
429,GRAV,800.4663053329,-0.9205428155909,-2.922413387551E-16,-0.3906416832137
430,GRAV,800.4663053329,-0.6018926219661,-5.934789777576E-17,0.7985770292356
431,GRAV,796.2163939796,-0.03446813255944,-7.393165173944E-17,0.9994057973806
432,GRAV,794.3500020627,0.1124331886304,-9.088368096218E-17,0.9936592867248
433,GRAV,790.2465213629,-0.02730636190489,-5.229782607388E-16,-0.9996271117769
434,GRAV,795.6845854273,0.5909151628314,-5.40843011771E-16,-0.8067337047229
435,GRAV,789.7905320844,-0.8530894949643,-9.9565268692E-17,0.5217646151107
436,GRAV,789.7905320844,-0.999679481896,-2.067042165184E-16,-0.02531666399952
437,GRAV,795.2907021566,0.5890000838384,-1.804690451787E-16,0.808132972498
438,GRAV,791.2037426546,0.1176189086173,-5.359090357227E-16,-0.9930588060813
439,GRAV,787.2700786369,0.4684308057905,-5.487086800909E-16,-0.8835001868627
440,GRAV,790.9801201187,-0.9196308173065,-1.211112938997E-16,0.3927838589608
441,GRAV,790.9801201187,-0.9928155793709,-1.746002024441E-16,0.1196546085967
442,GRAV,787.4536252947,0.4661698133465,-1.538672587486E-16,0.8846952611631
443,GRAV,725.0062795289,0.7438583285094,-5.548503179532E-16,-0.6683373303259
444,GRAV,724.3228535251,0.7428876874499,-2.565677053445E-16,0.6694160767679
445,GRAV,634.4559316978,0.9999985271372,-4.792884837804E-16,-0.00171631101583
446,GRAV,8886.164967104,-0.9966346005438,9.28912371433E-17,0.08197239168661
447,GRAV,638.8317467148,0.9702232462967,-4.192446307406E-16,0.2422124116256
448,GRAV,624.3975940686,0.9958262436124,-4.64189164292E-16,0.09126934059545
449,GRAV,1013.836325523,-0.835677118699,-2.733754553654E-16,-0.5492210422798
450,GRAV,1010.381810398,-0.8948634042679,-2.451972664157E-16,-0.4463401031748
451,GRAV,783.2810202871,0.8485719311116,-5.098963253825E-16,-0.5290800296076
452,GRAV,630.6326516904,-0.4145414400965,-5.401578856179E-16,-0.910030435998
453,GRAV,630.6326516904,-0.4145414400965,-5.401578856179E-16,-0.910030435998
454,GRAV,630.6326516904,-0.580838755743,-1.385284212836E-16,0.814018636044
455,GRAV,644.2573208768,0.9404041816715,-5.429767715302E-16,-0.3400587818226
456,GRAV,1001.02714923,-0.8937818469686,-4.785241817691E-17,0.4485019621244
457,GRAV,710.7686507338,0.9862323706562,-4.001233256046E-16,0.1653653865534
458,GRAV,641.1743815116,0.9392577231869,-3.921858773402E-16,0.3432126591981
459,GRAV,8519.796673256,-0.997537097515,5.788427801446E-17,-0.07014085173008
460,GRAV,631.821379801,-0.0925859506558,-5.9135636598E-16,-0.9957046960526
461,GRAV,631.821379801,-0.0925859506558,-5.9135636598E-16,-0.9957046960526
462,GRAV,1009.616833629,0.9961656832981,-3.188899256769E-16,0.08748674996421
463,GRAV,1005.12110309,0.5475590632088,-4.804832791249E-16,-0.8367670358576
464,GRAV,1001.02714923,0.4485019621244,-4.840881309008E-16,-0.8937818469686
465,GRAV,644.736057503,0.9379854972417,-5.439308646437E-16,-0.3466744971356
466,GRAV,930.5644393628,0.8015898182445,-2.053142582338E-16,0.5978743708228
467,GRAV,925.6369389574,0.8708717553591,-2.374732006209E-16,0.4915103108968
468,GRAV,925.6369389574,0.8708717553591,-2.374732006209E-16,0.4915103108968
469,GRAV,935.6627222527,0.9258583582456,-2.656617384621E-16,0.3778707457145
470,GRAV,8873.302582647,-0.9980792821915,8.853164593881E-17,0.06194954769902
471,GRAV,641.6684210628,0.9368059310296,-3.901679940904E-16,0.349849464181
472,GRAV,9813.309176997,-0.9938136910991,5.207560416087E-17,-0.1110601070767
473,GRAV,10871.78283443,-0.997303602195,6.321066595635E-17,-0.07338613662621
474,GRAV,8959.523374252,-0.9994686659744,6.78369001097E-17,-0.03259425923873
475,GRAV,629.0855384975,0.406405591725,-2.177850538913E-16,0.9136927793381
476,GRAV,1134.130915981,-0.7071067811866,-2.966745200123E-16,-0.7071067811865
477,GRAV,629.0855384975,0.406405591725,-2.177850538913E-16,0.9136927793381
478,GRAV,8724.823564925,-0.9945801532947,9.709311107846E-17,0.1039726823366
479,GRAV,628.877289363,0.4074057870105,-6.256609125146E-16,-0.9132472418301
480,GRAV,628.877289363,0.4074057870105,-6.256609125146E-16,-0.9132472418301
481,GRAV,1013.836325523,-0.5492210422798,-3.664722876555E-16,-0.835677118699
482,GRAV,1013.836325523,-0.4491070930149,9.158888759503E-18,0.8934779342568
483,GRAV,709.8389662174,0.9926582270054,-4.111284753463E-16,0.1209530667595
484,GRAV,716.1610485674,-0.5418837785049,-4.663598131178E-16,-0.8404534315435
485,GRAV,716.1610485674,-0.5418837785049,-4.663598131178E-16,-0.8404534315435
486,GRAV,716.1610485674,-0.456912133162,-8.900540407319E-17,0.8895118338557
487,GRAV,1011.246026117,-0.06127857736819,-7.60197609656E-18,0.9981207020976
488,GRAV,1010.381810398,-0.4463401031748,-3.909651588689E-16,-0.8948634042679
489,GRAV,1010.381810398,-0.5518043894256,5.535970293664E-18,0.8339735702111
490,GRAV,1004.410936849,0.05454707428449,-2.092303693451E-17,0.9985112000809
491,GRAV,1119.843094668,0.2588190451025,-4.555089932652E-16,-0.9659258262891
492,GRAV,1005.12110309,-0.05581654088243,-4.550958861754E-16,-0.9984410417065
493,GRAV,1005.12110309,-0.8367670358576,-3.058402653943E-17,0.5475590632088
494,GRAV,1004.826790739,0.5459720805228,-1.067417550257E-16,0.8378033703021
495,GRAV,1001.02714923,0.05847683063739,-4.676775879387E-16,-0.9982887659784
496,GRAV,1001.255248261,0.4467074640143,-8.478852155423E-17,0.8946800777898
497,GRAV,8443.040335807,-0.9960217354821,5.32419063761E-17,-0.08911061916075
498,GRAV,1136.156899138,0.9997010350511,-3.069262709092E-16,0.02445077744616
499,GRAV,1127.620364559,0.965056856541,-2.519774390062E-16,0.2620405763297
500,GRAV,1127.620364551,0.7047434656774,-4.422339727884E-16,-0.7094622242129
501,GRAV,792.0104447366,0.9190269559371,-4.836098305298E-16,-0.3941946908077
502,GRAV,636.0702951212,0.7866873365939,-3.184692870926E-16,0.6173516294971
503,GRAV,797.3749472922,0.9829993193363,-3.591679570388E-16,0.1836091996183
504,GRAV,10358.81391853,-0.9995533887783,7.205704109424E-17,-0.0298834901198
505,GRAV,9622.433737421,-0.9999306701346,7.436875600527E-17,-0.01177518254986
506,GRAV,9940.322551548,-0.999094755454,6.821398223614E-17,-0.04254021185192
507,GRAV,10604.9592015,-0.999374695192,7.135320532377E-17,-0.03535843053369
508,GRAV,9377.748577674,-0.9999869610682,7.52137967672E-17,-0.005106632320508
509,GRAV,9771.137749807,-0.9981029092831,6.345062967133E-17,-0.06156770647461
510,GRAV,10018.96856875,-0.9977814841944,6.290639496928E-17,-0.06657409255033
511,GRAV,10434.30613656,-0.9985910533458,6.695353568215E-17,-0.05306513146883
512,GRAV,9447.557966371,-0.9995221553881,6.959727434469E-17,-0.03091053037784
513,GRAV,636.4468043111,0.7871736612947,-5.936592662487E-16,-0.6167314058518
514,GRAV,10903.84327984,-0.9943712418456,5.571018109026E-17,-0.1059520334415
515,GRAV,11228.29588581,-0.997472325661,6.444641086263E-17,-0.07105603099278
516,GRAV,8964.103329182,-0.9916603310272,1.030849363996E-16,0.1288789659603
517,GRAV,8796.634598067,-0.9976587822433,5.91713630959E-17,-0.06838826078275
518,GRAV,10029.43609529,-0.9902175989171,4.588167314082E-17,-0.1395317411732
519,GRAV,9527.874467988,-0.9910965487033,4.614067994996E-17,-0.1331451506755
520,GRAV,727.7676344653,0.9681899921251,-4.831535662808E-16,-0.2502161848258
521,GRAV,792.0104447366,0.9190269559371,-4.836098305298E-16,-0.3941946908077
522,GRAV,710.6654980218,0.04972118346798,-5.645296982121E-16,-0.9987631370423
523,GRAV,710.6654980218,0.04972118346798,-5.645296982121E-16,-0.9987631370423
524,GRAV,8708.055651922,-0.9964952804082,9.27005431634E-17,0.08364900551762
525,GRAV,719.5361133881,0.8743465056638,-5.2980977879E-16,-0.4853021615792
526,GRAV,993.5055721012,0.8453604617295,-4.460878322192E-16,-0.5341963026308
527,GRAV,1138.57904102,-0.8664527274235,-2.332415692662E-16,-0.4992591222406
528,GRAV,639.8158252666,0.9885233730828,-4.408700016002E-16,0.1510680008108
529,GRAV,9957.7701028,-0.9949395968678,5.490583709551E-17,-0.1004748654371
530,GRAV,9708.377164301,-0.9953506435431,5.52581902083E-17,-0.09631768476393
531,GRAV,10860.12982045,-0.998373717655,6.695052635806E-17,-0.05700806868887
532,GRAV,9045.165801067,-0.999884870038,7.20191340512E-17,-0.01517388114722
533,GRAV,10693.54967273,-0.9972128428576,6.256175780249E-17,-0.07460928923285
534,GRAV,9117.522004945,-0.9991247212108,6.620364788072E-17,-0.04183050878856
535,GRAV,711.3568707076,0.533713071239,-2.019533248084E-16,0.8456656298967
536,GRAV,711.3568707076,0.533713071239,-2.019533248084E-16,0.8456656298967
537,GRAV,11200.0167915,-0.9999908588467,8.145807054997E-17,0.004275771623548
538,GRAV,711.4367831965,0.5352696831362,-5.792439149444E-16,-0.8446812217134
539,GRAV,711.4367831965,0.5352696831362,-5.792439149444E-16,-0.8446812217134
540,GRAV,716.386732541,0.8722717135328,-3.136575857418E-16,0.4890215309888
541,GRAV,1132.652232254,-0.8663834132572,-1.152020907644E-17,0.4993793960835
542,GRAV,1134.130915981,-0.2588190451025,3.096775196562E-17,0.9659258262891
543,GRAV,1127.620364551,-0.2555946323213,-4.01827167321E-16,-0.9667840420324
544,GRAV,1127.620364551,-0.7094622242129,1.737600156149E-17,0.7047434656774
545,GRAV,1120.470925335,0.2577023472213,-2.415178234004E-17,0.9662243529515
546,GRAV,9281.147891288,-0.9962983038796,9.489313383791E-17,0.08596330430282
547,GRAV,1132.652232254,0.4993793960835,-4.553864827426E-16,-0.8663834132572
548,GRAV,1132.626882758,0.4983751622077,-6.852489301381E-17,0.8669614741697
549,GRAV,9750.330418193,-0.9868144157896,3.987104992942E-17,-0.1618558271728
550,GRAV,11259.3412228,-0.9947219991653,5.718503487952E-17,-0.1026067462532
551,GRAV,1126.997435389,0.7040580831465,-1.255227635234E-16,0.7101423910428
552,GRAV,719.5361133881,0.8743465056638,-5.2980977879E-16,-0.4853021615792
553,GRAV,1240.734853677,0.9819095078138,-2.505730002618E-16,0.1893507815271
554,GRAV,636.0702951212,0.7866873365939,-3.184692870926E-16,0.6173516294971
555,GRAV,999.5882855344,0.9034509530973,-4.269984713744E-16,-0.4286914687134
556,GRAV,999.5882855344,0.9034509530973,-4.269984713744E-16,-0.4286914687134
557,GRAV,636.4468043111,0.7871736612947,-5.936592662487E-16,-0.6167314058518
558,GRAV,8708.055651922,-0.9964952804082,9.27005431634E-17,0.08364900551762
559,GRAV,11217.01324851,-0.9984756336018,6.806643869697E-17,-0.05519428506127
560,GRAV,8957.50683331,-0.9970205642969,5.764280101853E-17,-0.07713620660334
561,GRAV,8719.545096223,-0.9962306643574,5.468979612915E-17,-0.08674366486439
562,GRAV,10726.14287035,-0.9941826431244,5.493584435695E-17,-0.1077073447361
563,GRAV,10170.82773458,-0.9916698177059,4.875443971138E-17,-0.128805949595
564,GRAV,9419.76337488,-0.9929848099797,4.937023741174E-17,-0.1182419855614
565,GRAV,716.386732541,0.8722717135328,-3.136575857418E-16,0.4890215309888
566,GRAV,1244.120092437,-0.7565481526247,-2.611273157711E-16,-0.6539379884669
567,GRAV,727.8160313182,0.9666015900603,-4.843237768169E-16,-0.2562837608842
568,GRAV,1241.008561026,-0.7576603275234,3.004475098074E-17,0.6526490849585
569,GRAV,9498.336715354,-0.999220442495,8.540779665648E-17,0.03947793434537
570,GRAV,9739.992967308,-0.9994948211865,8.434342454425E-17,0.0317821085114
571,GRAV,10711.74083134,-0.9999900064817,8.052787871195E-17,0.004470675190372
572,GRAV,10468.10669467,-0.9999414196989,8.142078029774E-17,0.01082391660087
573,GRAV,10513.16092842,-0.9911010424733,4.850161656289E-17,-0.1331116959866
574,GRAV,9078.16866517,-0.9936123030066,4.968222977579E-17,-0.11284764647
575,GRAV,8843.454321109,-0.9923768973396,4.653815197765E-17,-0.1232399838797
576,GRAV,1124.807510049,0.9714772846418,-3.64543279166E-16,-0.2371326325602
577,GRAV,1124.807510049,0.9714772846418,-3.64543279166E-16,-0.2371326325602
578,GRAV,717.828718129,0.9992508772059,-4.26402327386E-16,0.0386999276891
579,GRAV,1236.636337942,0.9858696566068,-3.312432530258E-16,-0.1675142387439
580,GRAV,8547.08930316,-0.9943517545613,9.69821263947E-17,0.1061347643371
581,GRAV,9318.682441855,-0.9922853321639,1.030698024542E-16,0.1239750764161
582,GRAV,1236.995119476,0.328616710909,-4.375989417495E-16,-0.944463370021
583,GRAV,11444.61562287,-0.9999509901492,8.316551902575E-17,0.009900368659447
584,GRAV,11138.32613481,-0.9996562388118,8.6201780979E-17,0.0262183943962
585,GRAV,1237.260748434,0.328106182629,-1.598656847324E-17,0.9446408486407
586,GRAV,10354.62484355,-0.9873224101072,1.128869078024E-16,0.1587276236204
587,GRAV,11576.59185176,-0.9983387844876,9.388658048684E-17,0.05761658951925
588,GRAV,1138.57904102,-0.5007405120068,3.404832404186E-17,0.8655974466432
589,GRAV,1138.57904102,-0.4992591222406,-3.525777059159E-16,-0.8664527274235
590,GRAV,1135.785411462,-0.002107217259155,1.272796082296E-17,0.9999977798152
591,GRAV,1132.652232254,0.0007164634937486,-4.344049386875E-16,-0.99999974334
592,GRAV,9267.495017424,-0.9977660505629,9.072985016315E-17,0.06680500238851
593,GRAV,11406.574315,-0.9975508167385,6.503519092426E-17,-0.06994546464396
594,GRAV,8786.900896926,-0.9913190854516,1.03091939214E-16,0.1314780240927
595,GRAV,10924.2250188,-0.992516005886,5.195575045587E-17,-0.1221146103466
596,GRAV,10140.49751919,-0.9881848170318,4.287106822311E-17,-0.1532669807486
597,GRAV,9387.006720411,-0.9894809944912,4.302936170944E-17,-0.1446629238634
598,GRAV,639.1966559874,-0.2588190451025,-1.323529284638E-16,0.9659258262891
599,GRAV,639.1966559874,-0.7071067811866,-4.599952004418E-16,-0.7071067811865
600,GRAV,639.1966559874,-0.7071067811866,-4.599952004418E-16,-0.7071067811865
601,GRAV,639.1966559874,-0.2588190451025,-1.323529284638E-16,0.9659258262891
602,GRAV,1241.008561026,0.6526490849585,-4.282989521523E-16,-0.7576603275234
603,GRAV,1240.736339246,0.6523040886129,-9.012389648135E-17,0.757957370819
604,GRAV,637.7198721079,0.9948803933837,-4.990039608568E-16,-0.1010594026339
605,GRAV,11450.19626734,-0.9994636298597,7.360979148532E-17,-0.03274832190505
606,GRAV,10715.18101074,-0.9890946180844,4.55645026854E-17,-0.1472814872155
607,GRAV,10483.82114675,-0.9876348910434,4.280559991377E-17,-0.1567715599008
608,GRAV,9044.174890147,-0.9901138559788,4.310892034522E-17,-0.1402660051433
609,GRAV,635.5469982934,0.697505548542,-2.875537286274E-16,0.7165793813341
610,GRAV,10253.87986734,-0.9906431602334,1.080335002687E-16,0.1364775772163
611,GRAV,11329.20387633,-0.9985891725275,9.245318503614E-17,0.05310051328142
612,GRAV,11630.4676665,-0.9993388203236,8.934076087626E-17,0.03635824795227
613,GRAV,10585.79094843,-0.9888248805233,1.113921422525E-16,0.1490817079927
614,GRAV,635.9410242842,-0.966687240657,-3.348043355843E-16,-0.2559605023258
615,GRAV,635.9410242842,-0.7091954567604,-1.466100436135E-16,0.7050119177081
616,GRAV,635.9410242842,-0.966687240657,-3.348043355843E-16,-0.2559605023258
617,GRAV,635.9410242842,-0.7091954567604,-1.466100436135E-16,0.7050119177081
618,GRAV,635.9410242842,-0.2559605023258,-5.657870704929E-16,-0.966687240657
619,GRAV,635.9410242842,-0.2559605023258,-5.65787070493E-16,-0.966687240657
620,GRAV,633.5326360361,0.9797163842532,-5.221021514517E-16,-0.2003891374948
621,GRAV,635.5469982934,0.697505548542,-2.875537286274E-16,0.7165793813341
622,GRAV,635.8534218285,0.6981220156145,-6.070841396772E-16,-0.7159788064701
623,GRAV,635.8534218285,0.6981220156145,-6.070841396772E-16,-0.7159788064701
624,GRAV,632.0527453306,-0.9659258262891,-2.223323919868E-16,0.2588190451025
625,GRAV,632.0527453306,-0.9659258262891,-2.223323919868E-16,0.2588190451025
626,GRAV,1236.995119476,0.1876412652552,-4.316673147318E-16,-0.9822376268365
627,GRAV,1237.355238277,0.1871467107282,6.796907777416E-18,0.9823319747741
628,GRAV,1244.120092437,-0.3282209251257,5.192632070285E-17,0.9446009868244
629,GRAV,1244.120092437,-0.1880528341997,4.602866362292E-17,0.9821589135926
630,GRAV,1244.120092437,-0.6539379884669,-2.944751203046E-16,-0.7565481526247
631,GRAV,632.0452588289,0.256316125724,-6.202669175204E-16,-0.9665930082997
632,GRAV,632.0452588289,0.256316125724,-6.202669175204E-16,-0.9665930082997
633,GRAV,1241.008561026,-0.186380523569,-3.929962746435E-16,-0.9824776335541
634,GRAV,1240.734853667,-0.6549373409534,4.252866557874E-17,0.7556831872054
635,GRAV,1240.734853667,-0.3269721668559,-3.703627707475E-16,-0.9450339687554
636,GRAV,639.1966559874,0.9659258262891,-5.303890578257E-16,-0.2588190451025
637,GRAV,632.360807031,0.2553273759898,-1.885640626303E-16,0.9668546587105
638,GRAV,632.360807031,0.2553273759898,-1.885640626303E-16,0.9668546587105
639,GRAV,1244.120092437,0.9446009868244,-3.617346131241E-16,-0.3282209251257
640,GRAV,1244.120092437,0.9446009868244,-3.617346131241E-16,-0.3282209251257
641,GRAV,1240.734853667,0.7556831872054,-4.159161486369E-16,-0.6549373409534
642,GRAV,1241.008561031,0.9440408511004,-2.153280127206E-16,0.3298285485727
643,GRAV,1241.008561031,0.9440408511004,-2.153280127206E-16,0.3298285485727
644,GRAV,1240.383530739,0.7554088962624,-1.235977931489E-16,0.6552536909073
645,GRAV,9612.723160231,-0.9848393322984,3.672738787521E-17,-0.173468987309
646,GRAV,9864.534698157,-0.9844486809947,3.683119116107E-17,-0.1756724067343
647,GRAV,11437.1357374,-0.9948852392217,5.788784921077E-17,-0.101011686348
648,GRAV,8988.884384974,-0.9889264667413,1.072372004115E-16,0.1484063454793
649,GRAV,11279.0805814,-0.9929811503343,5.354931561031E-17,-0.118272714862
650,GRAV,9685.495107235,-0.998364587696,8.975443632537E-17,0.05716773595902
651,GRAV,10650.22105385,-0.9996240011994,8.548231570395E-17,0.02741999682817
652,GRAV,10166.73381048,-0.9991346430223,8.752671927387E-17,0.04159284929674
653,GRAV,10721.53201952,-0.9929753102561,1.052375009121E-16,0.1183217360493
654,GRAV,10393.95647363,-0.9944874308782,1.016836890347E-16,0.1048558526043
655,GRAV,10630.27814003,-0.9953454880747,1.003894888721E-16,0.09637094670787
656,GRAV,11635.95917606,-0.9988671893559,7.057202083686E-17,-0.04758506097736
657,GRAV,635.9410242842,0.9651559590862,-4.16087804946E-16,0.2616753229489
658,GRAV,1009.880554286,0.9995042755674,-3.457141277672E-16,-0.03148337851267
659,GRAV,1009.880554286,0.9995042755674,-3.457141277672E-16,-0.03148337851267
660,GRAV,1138.57904102,0.8655974466432,-4.100048703538E-16,-0.5007405120068
661,GRAV,1138.57904102,0.8655974466432,-4.100048703538E-16,-0.5007405120068
662,GRAV,1135.482048327,0.864224237164,-1.864479719825E-16,0.5031068155952
663,GRAV,1135.482048327,0.864224237164,-1.864479719825E-16,0.5031068155952
664,GRAV,9459.221903096,-0.9964366110013,9.503134471839E-17,0.08434500729888
665,GRAV,633.7483935905,0.9811330756979,-5.205436014126E-16,-0.1933336177998
666,GRAV,9342.523023376,-0.9897531832685,1.070753083092E-16,0.1427887818068
667,GRAV,11692.29357691,-0.9996494666007,7.546100294731E-17,-0.02647534560699
668,GRAV,9872.838651653,-0.9860459461259,1.133578323345E-16,0.1664733976607
669,GRAV,9621.244450988,-0.986455781685,1.122201970521E-16,0.1640274086252
670,GRAV,639.1382666287,0.9677495426723,-5.290683545172E-16,-0.2519143161029
671,GRAV,800.7482689956,0.9992114087708,-4.093842042425E-16,-0.039705926287
672,GRAV,800.7482689956,0.9992114087708,-4.093842042425E-16,-0.039705926287
673,GRAV,1240.734853667,0.7556831872054,-4.159161486369E-16,-0.6549373409534
674,GRAV,1240.383530739,0.7554088962624,-1.235977931489E-16,0.6552536909073
675,GRAV,635.8692149099,0.9670093502495,-4.178663713594E-16,0.2547408811521
676,GRAV,10114.53552281,-0.9978232548419,9.270545800443E-17,0.06594506878251
677,GRAV,10354.15023544,-0.9983107097228,9.155217740993E-17,0.05810100560874
678,GRAV,9770.395264652,-0.9896892671629,1.082888167E-16,0.1432311225345
679,GRAV,11365.59565307,-0.9953917656049,1.017431779389E-16,0.09589177736405
680,GRAV,9496.052615913,-0.9925719029858,1.030617843459E-16,0.1216594320349
681,GRAV,1249.46243436,-0.9669664023984,-1.498341193979E-16,-0.2549038576262
682,GRAV,5785.419443186,-0.9989773480088,7.049973101276E-17,0.0452134732716
683,GRAV,6952.200231771,-0.99929191615,5.898724171463E-17,-0.03762534142272
684,GRAV,4612.552649692,-0.9998213146005,5.420119343354E-17,0.01890340896719
685,GRAV,11206.53155241,-0.9935721109166,1.051213055242E-16,0.1132009735327
686,GRAV,11116.38565457,-0.9957445121724,1.004738604125E-16,0.09215674950082
687,GRAV,1125.024317373,-0.9969357684597,-9.362663525739E-17,0.07822450744964
688,GRAV,1245.570745708,-0.9665835485775,-3.639401318903E-17,0.2563517965986
689,GRAV,8330.181498236,-0.9987239354958,6.174799692418E-17,-0.05050248179903
690,GRAV,8330.181498236,-0.9987239354958,6.174799692418E-17,-0.05050248179903
691,GRAV,1249.46243436,-0.9669664023984,-1.498341193979E-16,-0.2549038576262
692,GRAV,1142.526279692,-0.9444775441302,-1.864830163157E-16,-0.328575970871
693,GRAV,1245.570745708,-0.9665835485775,-3.639401318903E-17,0.2563517965986
694,GRAV,1135.058602516,-0.9432203808563,-4.055580679513E-17,0.3321675979643
695,GRAV,8418.267770391,-0.9988887780132,8.385009949441E-17,0.04712970569819
696,GRAV,8418.267770391,-0.9988887780132,8.385009949441E-17,0.04712970569819
697,GRAV,1261.714131108,-0.9205426135177,-1.829914126185E-16,-0.3906421593965
698,GRAV,1258.130330196,-0.9197947083018,-8.886232126758E-18,0.3923999166411
699,GRAV,1884.128796631,-0.9957075539158,-4.618974741061E-17,-0.0925552109556
700,GRAV,1876.041275355,-1,-2.564784690203E-17,-5.68118685682E-18
701,GRAV,1245.141219546,-0.9989548074634,-1.005620741007E-16,-0.04570878083908
702,GRAV,1124.237024519,-0.9877828242486,-7.739014739121E-17,0.1558367482962
703,GRAV,1263.986170171,-0.947093618715,-1.643971665844E-16,-0.3209574385947
704,GRAV,8645.947835152,-0.9999141246369,7.126256779895E-17,-0.0131050887644
705,GRAV,2407.618649887,-0.9973734343659,-1.392381775264E-17,-0.0724308803007
706,GRAV,2407.618649887,-0.9973734343659,1.839941898175E-17,0.0724308803007
707,GRAV,1260.232747031,-0.9465499408975,-2.142774485317E-17,0.3225572962855
708,GRAV,8734.665376716,-0.9999887278302,7.553479515314E-17,0.004748074605365
709,GRAV,8628.910064823,-0.9989636295327,8.419123737605E-17,0.04551556734574
710,GRAV,8460.566465893,-0.9977161975634,8.842812415168E-17,0.06754545965254
711,GRAV,8460.566465893,-0.9977161975634,8.842812415168E-17,0.06754545965254
712,GRAV,2931.739501689,-0.9982293740354,3.336004926008E-17,0.05948207135701
713,GRAV,2926.548487606,-1,2.012335030507E-17,3.641880898792E-18
714,GRAV,8490.460367935,-0.999996023374,7.305911490276E-17,-0.002820148254929
715,GRAV,8490.460367935,-0.999996023374,7.305911490276E-17,-0.002820148254929
716,GRAV,1241.159118178,-0.9932367494294,-1.17468923086E-16,-0.116106673292
717,GRAV,1233.13664832,-0.9996984922505,-8.66786429089E-17,0.02455452284479
718,GRAV,8452.737186654,-0.998640324081,6.179276534783E-17,-0.05212967599529
719,GRAV,8373.079803378,-0.9974684157722,5.716884355455E-17,-0.07111089604891
720,GRAV,8373.079803378,-0.9974684157722,5.716884355455E-17,-0.07111089604891
721,GRAV,8490.460367935,-0.999996023374,7.305911490276E-17,-0.002820148254929
722,GRAV,8393.91688191,-0.998779864052,8.42595814591E-17,0.04938403754477
723,GRAV,8590.403569993,-0.9996778672698,7.964691975966E-17,0.02538034063788
724,GRAV,8344.891579335,-0.9998327631918,7.726086520714E-17,0.01828785521306
725,GRAV,8344.891579335,-0.9998327631918,7.726086520714E-17,0.01828785521306
726,GRAV,8413.116703798,-0.9995003638019,6.632628042016E-17,-0.03160732130146
727,GRAV,8305.895135524,-0.9986056252661,6.114151543252E-17,-0.05279019972408
728,GRAV,8256.022469107,-0.9997713160721,6.809378433947E-17,-0.021384937677
729,GRAV,8256.022469107,-0.9997713160721,6.809378433947E-17,-0.021384937677
730,GRAV,8256.022469107,-0.9997713160721,6.809378433947E-17,-0.021384937677
731,GRAV,8266.191345142,-0.9994908492847,6.575310503921E-17,-0.03190677351505
732,GRAV,634.7213075546,-0.0963545204417,-1.449760928716E-16,0.9953470783553
733,GRAV,713.641118483,0.04502302093039,-1.168866355955E-16,0.9989859496441
734,GRAV,713.641118483,0.04502302093039,-1.168866355955E-16,0.9989859496441
735,GRAV,634.7213075546,-0.0963545204417,-1.449760928716E-16,0.9953470783553
736,GRAV,716.2592367239,-0.5441643393499,-9.134734662206E-17,0.8389786479881
737,GRAV,634.1580242512,-0.416432248138,-1.319361610368E-16,0.9091667518727
738,GRAV,710.5457493036,-0.5011864204661,-9.252885823102E-17,0.8653393391846
739,GRAV,803.7241010038,-0.394467041519,-5.241555492984E-17,0.9189100898103
740,GRAV,803.7241010038,-0.5985659608101,-4.154080165982E-16,-0.8010735238163
741,GRAV,717.2079167849,-0.3465980695529,-5.075335347474E-16,-0.9380137409346
742,GRAV,794.8966479816,-0.4720557921468,-4.495610883446E-16,-0.8815686752039
743,GRAV,716.2592367239,-0.8907494657046,-3.446577298696E-16,-0.4544946527154
744,GRAV,634.1580242512,-0.8152242817789,-4.234032644874E-16,-0.5791453793289
745,GRAV,716.2592367239,-0.8907494657046,-3.446577298696E-16,-0.4544946527154
746,GRAV,634.1580242512,-0.8152242817789,-4.234032644874E-16,-0.5791453793289
747,GRAV,631.2639310218,-0.9959274183391,-2.976172054493E-16,-0.09015862355036
748,GRAV,710.3321137221,-0.9986484218679,-2.234443141047E-16,0.0519743157798
749,GRAV,710.3321137221,-0.9986484218679,-2.234443141047E-16,0.0519743157798
750,GRAV,631.2639310218,-0.9959274183391,-2.976172054493E-16,-0.09015862355036
751,GRAV,710.3321137221,-0.8908420606767,-1.44651346394E-16,0.4543131331243
752,GRAV,631.2639310218,-0.8174191328319,-1.671499730834E-16,0.5760433675344
753,GRAV,710.3321137221,-0.8908420606767,-1.44651346394E-16,0.4543131331243
754,GRAV,631.2639310218,-0.8174191328319,-1.671499730834E-16,0.5760433675344
755,GRAV,716.1192525674,0.996547063149,-4.170310173183E-16,0.08302981951785
756,GRAV,634.4559316978,0.9999985271372,-4.792884837804E-16,-0.00171631101583
757,GRAV,637.7198721079,0.9948803933837,-4.990039608568E-16,-0.1010594026339
758,GRAV,727.9239186375,0.9853788404614,-4.670194098882E-16,-0.1703776416402
759,GRAV,637.0798714767,0.9941387547292,-5.008788340143E-16,-0.1081116845926
760,GRAV,727.599635657,0.984293538171,-4.684302510928E-16,-0.1765396009817
761,GRAV,6941.62012198,-0.999684397976,6.176471395838E-17,-0.02512179220057
762,GRAV,5785.419443186,-0.9989773480088,5.032262155233E-17,-0.0452134732716
763,GRAV,5771.654814026,-1,6.041673729839E-17,4.219542282319E-17
764,GRAV,4612.552649692,-0.9998213146005,4.576529757535E-17,-0.01890340896719
765,GRAV,6952.200231771,-0.99929191615,7.57780471414E-17,0.03762534142272
766,GRAV,6941.62012198,-0.999684397976,7.297564544396E-17,0.02512179220057
767,GRAV,8354.786346946,-0.9995879987764,7.959371597738E-17,0.02870248599224
768,GRAV,8344.891579335,-0.9998327631918,7.726086520714E-17,0.01828785521306
769,GRAV,1125.024317373,-0.9969357684597,-9.362663525739E-17,0.07822450744964
770,GRAV,998.9263768968,-0.9893013351135,-1.061481037125E-16,0.1458864912963
771,GRAV,992.9660573327,-0.9995096959348,-1.321111469355E-16,0.031310824522
772,GRAV,1120.538508361,-0.9948270573302,-1.348134184969E-16,-0.1015830990068
773,GRAV,1245.141219546,-0.9989548074634,-1.005620741007E-16,-0.04570878083908

***********************************************************
** MbDAssembly gravity
*DLOAD
Eall,GRAV,9810,1,0,-6.162975822039E-33

***********************************************************
** Outputs --> frd file
*NODE FILE
U
*EL FILE
S, E
*OUTPUT, FREQUENCY=1
***********************************************************
*END STEP

***********************************************************
** CalculiX Input file
**   written by    --> FreeCAD 26.3.0
**   written on    --> Wed Sep 23 14:42:37 2026
**   file name     --> RealisticPendulum.FCStd
**   analysis name --> FEMPart002
**
**
***********************************************************
**  About units:
**  See ccx manual, ccx does not know about any unit.
**  Golden rule: The user must make sure that the numbers they provide have consistent units.
**  The user is the FreeCAD calculix writer module ;-)
**
**  The unit system which is used at Guido Dhondt's company: mm, N, s, K
**  Since Length and Mass are connected by Force, if Length is mm the Mass is in t to get N
**  The following units are used to write to inp file:
**
**  Length: mm (this includes the mesh geometry)
**  Mass: t
**  TimeSpan: s
**  Temperature: K
**
**  This leads to:
**  Force: N
**  Pressure: N/mm^2 == MPa (Young's Modulus has unit Pressure)
**  Density: t/mm^3
**  Gravity: mm/s^2
**  Thermal conductivity: t*mm/K/s^3 == as W/m/K == kW/mm/K
**  Specific Heat: mm^2/s^2/K = J/kg/K == kJ/t/K
**
